%chk=opt.chk
%mem=2gb
%nproc=1
#p b3lyp 6-31G* opt scf(xqc,tight)

opt calculation

0 1
C     -5.501827   -0.336721    1.223976
O     -4.622864    0.614952    0.639551
C     -4.704437    0.604271   -0.782958
C     -3.744697    1.643554   -1.356760
C     -2.289318    1.490564   -0.900077
C     -1.672142    0.144611   -1.286326
C     -0.205118    0.082511   -0.937786
C      0.769450    0.332690   -1.907661
C      2.125755    0.285512   -1.575795
C      2.538181   -0.007958   -0.266281
C      3.902096   -0.058015    0.080352
C      4.298074   -0.348453    1.387479
O      5.586327   -0.424919    1.841612
C      6.618606   -0.180639    0.895027
C      3.325145   -0.590569    2.356809
C      1.968230   -0.544857    2.030533
C      1.559458   -0.255296    0.721430
C      0.199034   -0.205195    0.373849
H     -5.240536   -1.348623    0.899656
H     -5.396936   -0.280406    2.310723
H     -6.539880   -0.112178    0.960595
H     -5.727571    0.849761   -1.090835
H     -4.463531   -0.394886   -1.162252
H     -3.794021    1.614355   -2.451481
H     -4.083387    2.640046   -1.046608
H     -1.704389    2.303876   -1.349194
H     -2.225012    1.634861    0.185700
H     -2.186162   -0.679345   -0.777030
H     -1.802558   -0.033500   -2.361128
H      0.481238    0.567983   -2.929539
H      2.861098    0.483127   -2.352441
H      4.638207    0.135093   -0.693036
H      7.577328   -0.277119    1.413676
H      6.599800   -0.922703    0.090015
H      6.556729    0.837626    0.497049
H      3.625351   -0.816567    3.376987
H      1.233460   -0.737112    2.808730
H     -0.559182   -0.389397    1.133440

