%chk=opt.chk
%mem=2gb
%nproc=1
#p b3lyp 6-31G* opt scf(xqc,tight)

opt calculation

0 1
C     -3.185968   -0.241097    0.052786
O     -2.219919    0.800458    0.124216
C     -0.904565    0.433955    0.058479
C     -0.421466   -0.870148   -0.072902
C      0.957016   -1.109181   -0.128466
C      1.852355   -0.034468   -0.051772
N      3.297820   -0.284214   -0.109913
O      4.056024    0.693472   -0.038580
O      3.675241   -1.459034   -0.227003
C      1.377721    1.274702    0.079830
C     -0.000304    1.499300    0.134058
H     -4.177339    0.217330    0.119219
H     -3.081997   -0.933839    0.894402
H     -3.126427   -0.769243   -0.904572
H     -1.089746   -1.723460   -0.134854
H      1.311806   -2.132930   -0.230994
H      2.056035    2.122875    0.141032
H     -0.376288    2.515525    0.236405

