%chk=opt.chk
%mem=2gb
%nproc=1
#p b3lyp 6-31G* opt scf(xqc,tight)

opt calculation

0 1
C      3.754189    0.661498   -0.064460
N      2.596528    0.374475    0.758514
C      2.175975    1.410387    1.684983
C      1.717919   -0.618791    0.330376
O      1.954167   -1.364146   -0.616820
O      0.556126   -0.660865    1.095093
C     -0.422104   -1.529808    0.594058
C     -0.444480   -2.840954    1.074346
C     -1.436818   -3.712265    0.631794
C     -2.402567   -3.266696   -0.271288
C     -2.381416   -1.945864   -0.732260
C     -1.391488   -1.049009   -0.302409
C     -1.389952    0.336415   -0.783282
C     -0.625280    0.705379   -1.900369
C     -0.614745    2.026060   -2.353623
C     -1.371509    2.994125   -1.696602
C     -2.137936    2.643126   -0.586824
C     -2.147088    1.322130   -0.133103
H      3.490482    1.445555   -0.780655
H      4.082465   -0.224927   -0.614381
H      4.575340    1.003227    0.572104
H      1.691425    2.210758    1.117805
H      1.473041    1.024120    2.427327
H      3.050467    1.805603    2.209853
H      0.308852   -3.179820    1.778675
H     -1.457655   -4.738603    0.988634
H     -3.175508   -3.947746   -0.618763
H     -3.144760   -1.615896   -1.434192
H     -0.025691   -0.042165   -2.418190
H     -0.015879    2.295670   -3.219461
H     -1.365260    4.021611   -2.050671
H     -2.729868    3.396407   -0.073792
H     -2.746973    1.061009    0.736210

