%chk=opt.chk
%mem=2gb
%nproc=1
#p b3lyp 6-31G* opt scf(xqc,tight)

opt calculation

0 1
C      5.568200   -0.320862    0.853197
O      4.739078   -1.076528   -0.020628
C      3.422900   -0.710495   -0.093278
C      2.833585    0.369909    0.568841
C      1.470544    0.636097    0.405209
C      0.701721   -0.193569   -0.408413
O     -0.653763    0.066190   -0.643638
C     -1.492403    0.055006    0.471581
O     -1.147210   -0.171612    1.624629
C     -2.929436    0.368650    0.037863
C     -3.849002    0.354229    1.269668
C     -2.978672    1.761363   -0.604194
C     -3.409967   -0.697729   -0.955228
C      1.277941   -1.260089   -1.090991
C      2.639152   -1.518186   -0.925015
H      5.215070   -0.384695    1.887811
H      6.572876   -0.753073    0.817421
H      5.642225    0.720601    0.523289
H      3.405108    1.024839    1.217607
H      1.019718    1.479778    0.919243
H     -3.533228    1.098576    2.009927
H     -4.886361    0.575602    0.994662
H     -3.835692   -0.624147    1.763983
H     -4.005251    2.041779   -0.865100
H     -2.381554    1.804993   -1.521981
H     -2.582181    2.523009    0.077087
H     -2.818326   -0.687474   -1.877542
H     -3.323815   -1.702581   -0.525949
H     -4.457468   -0.537106   -1.233637
H      0.679551   -1.887691   -1.743713
H      3.096662   -2.354786   -1.447413

