%chk=opt.chk
%mem=2gb
%nproc=1
#p b3lyp 6-31G* opt scf(xqc,tight)

opt calculation

0 1
C      6.187680   -0.411779    0.567202
O      5.181109    0.580173    0.723659
C      3.885280    0.179517    0.545525
C      3.461992   -1.108140    0.225728
C      2.097751   -1.380237    0.071942
C      1.134485   -0.371264    0.234674
C     -0.244423   -0.628711    0.083207
C     -1.226917    0.363538    0.242376
N     -2.566657    0.091998    0.090464
C     -3.636318    1.044829    0.377764
C     -4.903708    0.194327    0.347022
C     -4.569793   -0.880469   -0.672074
C     -3.100559   -1.181401   -0.386510
C     -0.764289    1.646535    0.565551
C      0.599004    1.930921    0.721391
C      1.560696    0.929112    0.558443
C      2.933419    1.189637    0.709915
H      7.157034    0.065453    0.740564
H      6.191792   -0.812971   -0.451679
H      6.073106   -1.210812    1.307141
H      4.162301   -1.924744    0.088441
H      1.790380   -2.393375   -0.177948
H     -0.546957   -1.644142   -0.157718
H     -3.526410    1.521385    1.357762
H     -3.672641    1.816018   -0.400207
H     -5.791191    0.774773    0.080297
H     -5.074136   -0.262674    1.329396
H     -5.204004   -1.766626   -0.581538
H     -4.681410   -0.480092   -1.687063
H     -3.009756   -1.944027    0.395408
H     -2.604785   -1.533490   -1.297466
H     -1.462834    2.467919    0.696098
H      0.897554    2.946504    0.970068
H      3.273206    2.192316    0.960027

