%chk=opt.chk
%mem=2gb
%nproc=1
#p b3lyp 6-31G* opt scf(xqc,tight)

opt calculation

0 1
C     -4.196110   -0.546598    1.393434
C     -3.151816    0.560313    1.176108
C     -3.641877    1.496235    0.063401
C     -2.967005    1.335521    2.487266
C     -1.817953   -0.072490    0.762157
O     -1.629181   -1.275199    0.628376
O     -0.864966    0.927345    0.565993
C      0.403610    0.485089    0.173872
C      1.469549    0.745613    1.027704
C      2.756886    0.366289    0.647168
C      2.984157   -0.260472   -0.590386
C      4.275130   -0.648942   -0.984360
C      4.489013   -1.270326   -2.220131
C      5.812906   -1.660396   -2.607614
N      6.885649   -1.973631   -2.920948
C      3.410385   -1.508383   -3.074272
C      2.120919   -1.127044   -2.695915
C      1.891781   -0.503385   -1.459474
C      0.601556   -0.116065   -1.068814
H     -5.164064   -0.127849    1.690856
H     -4.351473   -1.131279    0.479235
H     -3.878496   -1.244083    2.177255
H     -2.955541    2.336652   -0.089673
H     -3.721176    0.964336   -0.891720
H     -4.626583    1.913748    0.301308
H     -2.271621    2.173840    2.367000
H     -3.918828    1.745145    2.843367
H     -2.561524    0.688182    3.273377
H      1.304241    1.236041    1.982270
H      3.584163    0.565460    1.325283
H      5.121208   -0.466865   -0.322920
H      3.562867   -1.992343   -4.037252
H      1.292712   -1.324634   -3.374073
H     -0.248518   -0.289827   -1.722933

