%chk=opt.chk
%mem=2gb
%nproc=1
#p b3lyp 6-31G* opt scf(xqc,tight)

opt calculation

0 1
C      3.362906   -0.131282   -0.348806
O      2.249906   -0.504544   -1.150819
C      1.007319   -0.266148   -0.631229
C      0.731507    0.317562    0.604899
C     -0.593696    0.504381    1.015519
C     -1.657722    0.100977    0.200990
C     -3.075898    0.333550    0.629405
C     -1.376842   -0.470098   -1.043748
C     -0.053522   -0.655615   -1.451399
H      3.374368   -0.687077    0.594643
H      3.377581    0.949314   -0.172222
H      4.272893   -0.390628   -0.898472
H      1.521387    0.642138    1.273423
H     -0.788632    0.968275    1.980020
H     -3.168337    0.280096    1.719274
H     -3.740842   -0.428675    0.209771
H     -3.411346    1.319555    0.293570
H     -2.183645   -0.775928   -1.705515
H      0.152614   -1.105852   -2.419243

