%chk=opt.chk
%mem=2gb
%nproc=1
#p b3lyp 6-31G* opt scf(xqc,tight)

opt calculation

0 1
C     -5.906685   -1.217422    0.694278
O     -4.841157   -0.882194   -0.181549
C     -4.406457    0.460927    0.016375
O     -3.387912    0.839356   -0.909390
C     -2.111398    0.431480   -0.636783
C     -1.751337   -0.589117    0.239499
C     -0.403245   -0.911820    0.427519
C      0.605580   -0.223553   -0.262877
C      1.961174   -0.538297   -0.082051
C      2.938407    0.174697   -0.776334
O      4.295159   -0.152503   -0.660687
C      4.849044    0.009120    0.605103
C      6.292927   -0.393662    0.550930
O      4.284704    0.412056    1.612707
C      2.594803    1.174639   -1.679821
C      1.249380    1.492007   -1.867551
C      0.244548    0.804199   -1.164894
C     -1.114225    1.112532   -1.341821
H     -6.772805   -0.574420    0.510236
H     -5.587542   -1.130639    1.737434
H     -6.196111   -2.254375    0.503823
H     -4.078433    0.623581    1.051743
H     -5.252768    1.132556   -0.168061
H     -2.495890   -1.167724    0.776509
H     -0.147973   -1.713180    1.117612
H      2.254529   -1.330149    0.601373
H      6.830877    0.248814   -0.150598
H      6.738685   -0.276977    1.542926
H      6.374357   -1.442382    0.254393
H      3.362624    1.705249   -2.234284
H      0.986516    2.279846   -2.570057
H     -1.409378    1.897354   -2.034990

