%chk=opt.chk
%mem=2gb
%nproc=1
#p b3lyp 6-31G* opt scf(xqc,tight)

opt calculation

0 1
C      3.797465    0.329591   -0.100837
O      2.607329    0.980402    0.327165
C      1.428738    0.329768    0.092018
C      1.282986   -0.908046   -0.525959
C      0.005354   -1.457048   -0.701333
C     -1.140902   -0.801659   -0.274575
N     -2.343136   -1.373007   -0.467463
C     -3.437079   -0.705389   -0.038754
C     -3.394032    0.527070    0.584845
C     -2.150210    1.113673    0.782121
C     -0.992185    0.452333    0.351387
C      0.288490    1.005926    0.528859
H      4.642698    0.974382    0.158475
H      3.803705    0.193003   -1.187292
H      3.934421   -0.624364    0.419061
H      2.133809   -1.477138   -0.884773
H     -0.097855   -2.425391   -1.185654
H     -4.383011   -1.208697   -0.217880
H     -4.304300    1.018135    0.908773
H     -2.086619    2.082786    1.270053
H      0.404335    1.973670    1.011850

