%chk=opt.chk
%mem=2gb
%nproc=1
#p b3lyp 6-31G* opt scf(xqc,tight)

opt calculation

0 1
C      4.847662   -0.621029   -0.815770
O      3.539934   -0.957159   -1.260399
C      2.490381   -0.428031   -0.557662
C      2.588338    0.411741    0.548486
C      1.442313    0.896613    1.194063
C      0.184877    0.513932    0.699903
C      0.057679   -0.321345   -0.410215
C      1.228504   -0.795578   -1.039943
C     -1.338329   -0.499807   -0.661389
C     -2.067546   -1.217455   -1.633726
C     -3.465219   -1.181529   -1.618602
C     -4.140813   -0.442279   -0.653643
C     -3.442272    0.276484    0.321214
C     -2.037600    0.230729    0.301239
N     -1.094472    0.819868    1.120906
C     -1.408391    1.656177    2.259499
H      5.563675   -1.120856   -1.475290
H      5.024724    0.457094   -0.888942
H      5.024194   -0.983535    0.202316
H      3.551427    0.717098    0.944712
H      1.540360    1.551915    2.053494
H      1.151993   -1.447251   -1.905520
H     -1.546210   -1.793203   -2.392822
H     -4.024748   -1.734170   -2.368944
H     -5.228172   -0.421968   -0.656459
H     -3.983075    0.850320    1.066517
H     -2.339993    1.315913    2.717745
H     -0.611405    1.581810    3.002762
H     -1.507816    2.685501    1.906468

