%chk=opt.chk
%mem=2gb
%nproc=1
#p b3lyp 6-31G* opt scf(xqc,tight)

opt calculation

0 1
C      1.621220    4.629953   -0.704216
O      1.258579    3.318626   -1.108888
C      1.833668    2.333967   -0.244975
O      1.578824    1.028289   -0.767170
C      1.681643    0.049515    0.194271
C      2.842573   -0.084318    0.956027
C      2.933908   -1.090909    1.913664
C      1.876394   -1.985762    2.120631
C      1.988905   -2.988876    3.098194
C      0.953950   -3.895244    3.320600
C     -0.208523   -3.809572    2.567769
C     -0.333914   -2.817876    1.592194
C      0.698127   -1.882187    1.337666
C      0.610115   -0.857593    0.343414
C     -0.585454   -0.736132   -0.533522
C     -1.603067    0.187819   -0.205880
O     -1.438904    0.947708    0.929721
C     -1.778468    2.323198    0.750127
O     -1.158494    3.110139    1.771741
C     -1.556794    4.469536    1.684066
C     -2.760708    0.271854   -0.980452
C     -2.900931   -0.523230   -2.115577
C     -1.896578   -1.422163   -2.494370
C     -2.058083   -2.207680   -3.648411
C     -1.075662   -3.112761   -4.045241
C      0.082378   -3.243488   -3.292295
C      0.255416   -2.469551   -2.142476
C     -0.722851   -1.542019   -1.708223
H      1.305676    4.819288    0.326297
H      2.702135    4.773488   -0.797902
H      1.117630    5.344830   -1.360338
H      2.917541    2.493986   -0.205964
H      1.398116    2.452190    0.755292
H      3.691554    0.574390    0.803755
H      3.847175   -1.173586    2.499183
H      2.891499   -3.071915    3.699997
H      1.056437   -4.663983    4.081437
H     -1.022742   -4.509458    2.735321
H     -1.262675   -2.779311    1.026003
H     -1.434292    2.688207   -0.225989
H     -2.865664    2.435278    0.838106
H     -1.024124    5.034505    2.453327
H     -1.300079    4.885672    0.705136
H     -2.632440    4.565088    1.862471
H     -3.574988    0.935201   -0.708533
H     -3.811273   -0.435899   -2.705024
H     -2.958025   -2.118417   -4.253263
H     -1.214962   -3.711075   -4.941326
H      0.856604   -3.943490   -3.594674
H      1.179628   -2.596231   -1.581699

