%chk=opt.chk
%mem=2gb
%nproc=1
#p b3lyp 6-31G* opt scf(xqc,tight)

opt calculation

0 1
C     -2.882164    1.266949    1.045909
C     -2.088453    0.182360    0.299745
C     -2.454531    0.232737   -1.189460
C     -2.439129   -1.188582    0.892895
C     -0.586836    0.444128    0.467307
O     -0.109727    1.377662    1.100945
O      0.138556   -0.536411   -0.207312
C      1.519748   -0.370663   -0.104367
C      2.205861   -1.005897    0.929765
C      3.592960   -0.875656    1.005063
C      4.272349   -0.126470    0.041967
Cl     5.983845    0.029517    0.135784
C      3.578284    0.491595   -1.000469
C      2.191151    0.364466   -1.080329
H     -2.641936    1.270017    2.115499
H     -3.961991    1.109429    0.946370
H     -2.652715    2.265748    0.656682
H     -3.533786    0.114205   -1.336837
H     -1.955156   -0.561401   -1.755819
H     -2.154405    1.187525   -1.636399
H     -1.939537   -2.001924    0.354679
H     -3.517631   -1.376453    0.847087
H     -2.127949   -1.254794    1.941815
H      1.670045   -1.589486    1.672000
H      4.137614   -1.357633    1.812339
H      4.111551    1.070600   -1.749484
H      1.643981    0.838433   -1.889370

