%chk=opt.chk
%mem=2gb
%nproc=1
#p b3lyp 6-31G* opt scf(xqc,tight)

opt calculation

0 1
C     -5.325563    1.433851    1.674678
O     -4.774408    0.538706    0.718110
C     -3.437550    0.667009    0.417455
C     -2.621972    1.686977    0.923162
C     -1.277077    1.750822    0.570862
C     -0.744532    0.782301   -0.278413
O      0.606300    0.895505   -0.636314
C      1.467372    0.353807    0.303950
O      1.157283   -0.146800    1.374187
O      2.728990    0.482265   -0.180433
C      3.864880   -0.004327    0.576598
C      4.008116    0.740093    1.908750
C      3.794774   -1.522912    0.772976
C      5.085018    0.320116   -0.299157
C     -1.533782   -0.245588   -0.831772
C     -1.011536   -1.206945   -1.725516
C     -1.813923   -2.218185   -2.252760
C     -3.153766   -2.288026   -1.898844
C     -3.689685   -1.344217   -1.020958
C     -2.903155   -0.306593   -0.471632
H     -5.305976    2.464489    1.305881
H     -6.373128    1.156238    1.826446
H     -4.816008    1.346545    2.639956
H     -3.004766    2.449949    1.592183
H     -0.649181    2.545620    0.962530
H      3.968232    1.824254    1.754421
H      4.953728    0.493137    2.403402
H      3.201175    0.492609    2.604934
H      2.983703   -1.811352    1.448314
H      4.726740   -1.913383    1.195827
H      3.605033   -2.029705   -0.179923
H      5.002309   -0.166165   -1.278252
H      5.149696    1.397090   -0.493771
H      6.020367   -0.003307    0.169606
H      0.034728   -1.172361   -2.021346
H     -1.390933   -2.948117   -2.937564
H     -3.787045   -3.072928   -2.303390
H     -4.744461   -1.420473   -0.762038

