%chk=opt.chk
%mem=2gb
%nproc=32
#p pbepbe 3-611+G(d) opt scf(xqc,tight)

opt calculation

0 1
C     -3.025096    0.193731    3.355432
O     -3.488586   -0.185508    2.067188
C     -2.565365   -0.269329    1.053604
C     -1.180080   -0.176515    1.247512
C     -0.284916   -0.261691    0.167275
C      1.102932   -0.168247    0.359560
C      1.964805   -0.238333   -0.734652
O      3.356429   -0.203818   -0.573340
C      3.891488    0.938034    0.024606
O      3.252973    1.910436    0.407356
C      5.414621    0.797678    0.131697
C      5.757080   -0.420167    0.999940
C      5.998363    2.058998    0.788509
C      6.015651    0.642830   -1.271533
C      1.477954   -0.438494   -2.021283
C      0.101211   -0.536224   -2.221372
C     -0.790230   -0.447246   -1.137751
C     -2.177115   -0.545663   -1.323952
C     -3.080610   -0.462403   -0.245849
C     -4.526388   -0.577691   -0.516856
C     -5.187698    0.374301   -1.310643
C     -6.553049    0.258314   -1.584305
C     -7.278582   -0.813386   -1.069249
C     -6.640924   -1.767549   -0.279852
C     -5.275670   -1.650133   -0.006910
H     -3.898108    0.297965    4.006911
H     -2.514909    1.162261    3.326421
H     -2.382163   -0.581463    3.784540
H     -0.768228   -0.036014    2.241919
H      1.511022   -0.032650    1.357427
H      5.283361   -0.346444    1.985645
H      6.838848   -0.508822    1.149865
H      5.409967   -1.353466    0.542508
H      7.088162    1.991690    0.880935
H      5.767343    2.955691    0.201727
H      5.586388    2.210795    1.792980
H      5.727731    1.480177   -1.917594
H      5.672082   -0.276166   -1.759618
H      7.110039    0.606055   -1.232396
H      2.158876   -0.517203   -2.863205
H     -0.274616   -0.685841   -3.231294
H     -2.571751   -0.700397   -2.327579
H     -4.638121    1.222548   -1.713413
H     -7.048510    1.007345   -2.196055
H     -8.340889   -0.903003   -1.279506
H     -7.203906   -2.603036    0.127122
H     -4.791817   -2.401947    0.613164

