%chk=opt.chk
%mem=2gb
%nproc=32
#p pbepbe 3-611+G(d) opt scf(xqc,tight)

opt calculation

0 1
C      5.221285    2.234750   -0.626613
O      4.733196    0.951405   -0.259360
C      3.410878    0.671426   -0.518465
C      2.554303    1.537633   -1.209266
C      1.227593    1.182265   -1.433964
C      0.754011   -0.037239   -0.952886
O     -0.579181   -0.375790   -1.224249
C     -1.476482    0.176107   -0.324674
O     -1.211338    0.922991    0.604858
O     -2.714582   -0.263891   -0.665726
C     -3.878187    0.134913    0.100497
C     -5.058802   -0.564389   -0.590930
C     -4.099607    1.650009    0.031443
C     -3.792377   -0.366744    1.546373
C      1.586784   -0.950888   -0.276563
C      1.125568   -2.206340    0.178242
C      1.969891   -3.088543    0.851485
C      3.291577   -2.734682    1.082227
C      3.767527   -1.500539    0.636095
C      2.937504   -0.585986   -0.050714
H      4.666146    3.030772   -0.119464
H      6.264566    2.299985   -0.302880
H      5.202693    2.366415   -1.713319
H      2.890699    2.496411   -1.588514
H      0.567858    1.855501   -1.973283
H     -6.010622   -0.339371   -0.098359
H     -5.131865   -0.258772   -1.641258
H     -4.919614   -1.651840   -0.594737
H     -4.070328    2.000204   -1.006497
H     -3.324057    2.202164    0.570626
H     -5.064255    1.931874    0.467167
H     -3.547268   -1.434475    1.573426
H     -3.010958    0.148663    2.112814
H     -4.737420   -0.212555    2.078306
H      0.094780   -2.508978    0.007167
H      1.593584   -4.048684    1.193830
H      3.957160   -3.414702    1.606958
H      4.809340   -1.249079    0.827925

