%chk=opt.chk
%mem=2gb
%nproc=32
#p pbepbe 3-611+G(d) opt scf(xqc,tight)

opt calculation

0 1
C      4.738746    1.510418    1.472388
O      4.826929    0.492403    0.483713
C      3.648446   -0.007032    0.000964
C      3.791808   -1.007566   -0.959786
C      2.670196   -1.606381   -1.536635
C      1.379459   -1.211011   -1.159573
C      0.240501   -1.800560   -1.725246
C     -1.040036   -1.395133   -1.337977
C     -1.219507   -0.390030   -0.377927
C     -2.567791    0.038089    0.028203
C     -2.953422    1.386628   -0.051792
C     -4.233573    1.793972    0.333380
C     -5.149957    0.858304    0.806596
C     -4.787876   -0.483488    0.894170
C     -3.507751   -0.889428    0.507417
C     -0.073570    0.197524    0.185812
C      1.223935   -0.197706   -0.189318
C      2.366634    0.394274    0.382610
H      4.237104    1.143174    2.373812
H      5.758006    1.794465    1.751446
H      4.241216    2.402284    1.077312
H      4.786633   -1.325202   -1.262397
H      2.815041   -2.384346   -2.282442
H      0.339262   -2.581033   -2.476385
H     -1.903556   -1.865354   -1.804501
H     -2.256401    2.131884   -0.429942
H     -4.513951    2.841461    0.260168
H     -6.145573    1.174415    1.106482
H     -5.499551   -1.216149    1.265597
H     -3.241358   -1.941005    0.593913
H     -0.197197    0.971431    0.942068
H      2.227155    1.170698    1.127871

