%chk=opt.chk
%mem=2gb
%nproc=32
#p pbepbe 3-611+G(d) opt scf(xqc,tight)

opt calculation

0 1
C      5.149758    0.574636    0.322676
C      3.654515    0.579112    0.197390
C      2.858941    1.098280    1.228987
C      1.467346    1.071197    1.130122
C      0.874673    0.500674    0.007105
O     -0.520334    0.539230   -0.084922
C     -1.156525   -0.701723   -0.068693
O     -0.603867   -1.790192    0.031416
C     -2.672322   -0.503767   -0.192174
C     -3.179238    0.328146    0.993277
C     -3.369282   -1.873867   -0.174830
C     -2.991194    0.200334   -1.517682
C      1.645797   -0.014912   -1.031985
C      3.037079    0.013636   -0.927746
H      5.624368    0.643748   -0.661787
H      5.481196   -0.346430    0.811835
H      5.495052    1.431913    0.910077
H      3.321045    1.528373    2.114647
H      0.855524    1.486009    1.924972
H     -2.752281    1.337357    0.991208
H     -4.269768    0.431421    0.967846
H     -2.905235   -0.137825    1.946811
H     -4.456513   -1.768574   -0.261960
H     -3.026929   -2.504271   -1.003763
H     -3.159287   -2.414724    0.755284
H     -2.562448    1.208131   -1.553764
H     -4.072598    0.296635   -1.665536
H     -2.581309   -0.357018   -2.367863
H      1.175636   -0.446900   -1.909800
H      3.638203   -0.408629   -1.729840

