%chk=opt.chk
%mem=2gb
%nproc=32
#p pbepbe 3-611+G(d) opt scf(xqc,tight)

opt calculation

0 1
O      1.221044    1.351249    1.352110
C      1.621839    0.522220    0.548909
O      0.868507   -0.418668   -0.129124
C     -0.498504   -0.407843    0.170117
C     -0.956660   -0.811699    1.420349
C     -2.329956   -0.843245    1.663934
C     -3.246622   -0.489309    0.658404
C     -4.631015   -0.517373    0.890187
C     -5.530983   -0.167658   -0.117987
C     -5.059482    0.214312   -1.370587
C     -3.686409    0.248551   -1.618927
C     -2.767157   -0.098965   -0.615926
C     -1.384371   -0.068716   -0.850967
C      3.053375    0.398446    0.153987
C      3.968593    1.306782    0.705306
C      5.322397    1.236008    0.370968
C      5.770836    0.257870   -0.514939
C      4.868747   -0.650507   -1.067576
C      3.512893   -0.583229   -0.735838
H     -0.258461   -1.090380    2.203497
H     -2.682193   -1.146610    2.647198
H     -5.019559   -0.812431    1.862331
H     -6.599999   -0.193085    0.076530
H     -5.759899    0.487663   -2.155409
H     -3.337830    0.551834   -2.603574
H     -0.994328    0.220646   -1.822533
H      3.629857    2.075205    1.398419
H      6.025625    1.944359    0.802351
H      6.825411    0.203164   -0.774833
H      5.221701   -1.413196   -1.757870
H      2.832601   -1.305396   -1.180281

