%chk=opt.chk
%mem=2gb
%nproc=32
#p pbepbe 3-611+G(d) opt scf(xqc,tight)

opt calculation

0 1
C     -4.260225   -0.406702   -0.882896
O     -3.483052   -0.156419    0.281081
C     -2.140358    0.029499    0.098952
C     -1.464365   -0.001424   -1.120353
C     -0.080785    0.205803   -1.164115
C      0.643085    0.450589    0.009490
C      2.136938    0.654836   -0.038845
C      2.898055   -0.670488    0.081779
N      4.347416   -0.475434    0.035081
C     -0.038710    0.474534    1.230823
C     -1.419563    0.267573    1.270918
H     -5.301044   -0.532261   -0.569223
H     -3.947030   -1.333313   -1.375238
H     -4.221063    0.441853   -1.573919
H     -1.980966   -0.185444   -2.056137
H      0.427956    0.173387   -2.125336
H      2.402532    1.161179   -0.976071
H      2.435621    1.338412    0.766650
H      2.642149   -1.172583    1.021842
H      2.610169   -1.350007   -0.728570
H      4.633070    0.148492    0.788957
H      4.602423   -0.005603   -0.832797
H      0.496892    0.653220    2.160296
H     -1.939148    0.290299    2.225760

