%chk=opt.chk
%mem=2gb
%nproc=32
#p pbepbe 3-611+G(d) opt scf(xqc,tight)

opt calculation

0 1
C      4.657296    0.444946    0.300150
O      4.211556    0.026185   -0.984823
C      2.862720   -0.132619   -1.148121
C      2.473678   -0.541883   -2.416916
C      1.127775   -0.725417   -2.664127
N      0.161926   -0.529941   -1.741770
C      0.542575   -0.128356   -0.496493
C     -0.542576    0.078392    0.496489
C     -1.887942   -0.126758    0.176609
C     -2.862719    0.082628    1.148124
O     -4.211552   -0.076212    0.984837
C     -4.657294   -0.494969   -0.300136
C     -2.473680    0.491942    2.416904
C     -1.127780    0.675508    2.664107
N     -0.161930    0.480021    1.741753
C      1.887945    0.076754   -0.176602
H      4.259612    1.433396    0.552913
H      4.400791   -0.293677    1.066775
H      5.748163    0.523865    0.265684
H      3.207901   -0.713617   -3.195853
H      0.778810   -1.044803   -3.641818
H     -2.143542   -0.446245   -0.826917
H     -4.259611   -1.483418   -0.552902
H     -4.400786    0.243654   -1.066760
H     -5.748161   -0.573884   -0.265670
H     -3.207905    0.663691    3.195837
H     -0.778819    0.994930    3.641787
H      2.143549    0.396196    0.826938

