%chk=opt.chk
%mem=2gb
%nproc=32
#p pbepbe 3-611+G(d) opt scf(xqc,tight)

opt calculation

0 1
C      6.552926    0.578428    0.168579
C      5.830863   -0.286754   -0.831023
O      6.444224   -0.879069   -1.716872
C      4.346417   -0.422589   -0.734500
C      3.685685   -1.192812   -1.697601
C      2.298546   -1.348279   -1.649870
C      1.545896   -0.736876   -0.637335
C      0.152238   -0.883536   -0.578726
C     -0.570490   -0.253871    0.432448
O     -1.951725   -0.472628    0.477418
C     -2.745191    0.658790    0.286319
O     -2.333669    1.793665    0.079335
C     -4.226065    0.270227    0.371153
C     -4.551043   -0.754136   -0.723995
C     -4.523988   -0.313932    1.758328
C     -5.094753    1.520598    0.159000
C      0.066844    0.495519    1.415951
C      1.452705    0.648439    1.364299
C      2.206683    0.041475    0.344265
C      3.603940    0.190372    0.282936
H      6.181429    1.605329    0.120965
H      7.619865    0.594921   -0.075351
H      6.440821    0.167558    1.175183
H      4.247966   -1.676855   -2.494643
H      1.812083   -1.951164   -2.414055
H     -0.373637   -1.482090   -1.317558
H     -4.287078   -0.367694   -1.715166
H     -5.618176   -1.002628   -0.730586
H     -3.995818   -1.688128   -0.581883
H     -3.968733   -1.242153    1.934083
H     -4.240147    0.388569    2.550401
H     -5.589869   -0.540611    1.872676
H     -6.161919    1.277904    0.213776
H     -4.905009    1.974677   -0.820566
H     -4.885848    2.283027    0.918476
H     -0.503091    0.967450    2.210596
H      1.940128    1.248479    2.129820
H      4.096991    0.790377    1.042751

