%chk=opt.chk
%mem=2gb
%nproc=32
#p pbepbe 3-611+G(d) opt scf(xqc,tight)

opt calculation

0 1
C      3.992317   -1.020924    0.374304
C      3.621841    0.111653   -0.584746
C      3.868814    1.464964    0.084067
C      2.167761   -0.016935   -1.067353
O      1.279130    0.068949    0.046369
C     -0.060386   -0.027686   -0.211385
C     -0.644310   -0.202894   -1.463621
C     -2.035986   -0.286100   -1.584171
C     -2.864832   -0.195497   -0.455495
C     -4.262942   -0.277320   -0.561481
C     -5.070559   -0.184955    0.573250
C     -4.491437   -0.009851    1.826649
C     -3.103436    0.073272    1.948067
C     -2.277065   -0.017848    0.816018
C     -0.878471    0.063613    0.918685
H      3.398324   -0.984175    1.293634
H      5.049057   -0.958392    0.655392
H      3.829640   -1.996206   -0.096373
H      4.274689    0.041453   -1.463814
H      3.616927    2.285267   -0.596250
H      4.923325    1.572348    0.359916
H      3.270806    1.582561    0.993959
H      2.043740   -0.983960   -1.570662
H      1.955526    0.791653   -1.777973
H     -0.050347   -0.278957   -2.367823
H     -2.469586   -0.423018   -2.572402
H     -4.733796   -0.414051   -1.532264
H     -6.151190   -0.249828    0.477365
H     -5.118670    0.062274    2.711268
H     -2.668249    0.210178    2.935532
H     -0.410635    0.200412    1.891339

