%chk=opt.chk
%mem=2gb
%nproc=32
#p pbepbe 3-611+G(d) opt scf(xqc,tight)

opt calculation

0 1
C     -4.359014   -0.269418   -1.424154
C     -3.996852    0.076063    0.026247
C     -4.896208    1.227183    0.504914
C     -4.214667   -1.138632    0.938063
C     -2.529038    0.513676    0.096829
O     -2.147851    1.614995    0.473587
O     -1.707381   -0.528558   -0.331575
C     -0.334547   -0.246436   -0.310077
C      0.212423    0.639069   -1.241624
C      1.591903    0.884939   -1.253263
C      2.409964    0.211831   -0.323886
C      1.813075   -0.674834    0.568360
C      0.447879   -0.944677    0.611758
O      2.749069   -1.237447    1.381706
C      3.953725   -0.714213    1.023767
C      5.175281   -1.028610    1.615567
C      6.304230   -0.381999    1.102161
C      6.197597    0.530118    0.049167
C      4.953686    0.826393   -0.526861
C      3.804048    0.187089   -0.025040
H     -5.420699   -0.523487   -1.518141
H     -4.151965    0.573893   -2.093045
H     -3.781325   -1.124633   -1.792495
H     -4.662027    1.511291    1.537475
H     -5.954969    0.947278    0.467200
H     -4.764046    2.119864   -0.117502
H     -5.269480   -1.434402    0.959492
H     -3.903195   -0.919976    1.965981
H     -3.635774   -2.006071    0.601557
H     -0.429026    1.149949   -1.954732
H      2.019181    1.582648   -1.967056
H      0.030433   -1.648077    1.319505
H      5.239531   -1.737959    2.431556
H      7.281207   -0.593802    1.531829
H      7.092375    1.019361   -0.330328
H      4.882456    1.537590   -1.344143

