%chk=opt.chk
%mem=2gb
%nproc=32
#p pbepbe 3-611+G(d) opt scf(xqc,tight)

opt calculation

0 1
C     -4.349658   -1.077433    1.189272
N     -4.353710    0.362202    0.948837
C     -5.417950    0.738413    0.022916
C     -3.035180    0.871675    0.534780
C     -2.465745    0.370318   -0.805610
O     -1.195948    0.971874   -1.075880
C     -0.066645    0.359859   -0.608720
C     -0.012554   -0.750048    0.229930
C      1.223125   -1.263003    0.637785
C      2.422605   -0.670276    0.220256
C      2.375186    0.439115   -0.638850
C      1.127693    0.950139   -1.031383
C      3.631352    1.135461   -1.100849
C      4.888820    0.285286   -0.928680
C      4.924464   -0.337468    0.461126
C      3.734239   -1.274855    0.657078
H     -4.199306   -1.657806    0.272776
H     -3.564896   -1.349121    1.903913
H     -5.300250   -1.391115    1.635200
H     -6.395873    0.472450    0.439847
H     -5.321810    0.247025   -0.951250
H     -5.430080    1.822530   -0.134650
H     -3.076534    1.969035    0.502103
H     -2.316765    0.665726    1.338078
H     -3.124614    0.695053   -1.618675
H     -2.419320   -0.721464   -0.877379
H     -0.907262   -1.240027    0.596618
H      1.244351   -2.132649    1.291442
H      1.081387    1.823174   -1.679556
H      3.536846    1.413906   -2.157242
H      3.738394    2.061550   -0.522156
H      5.777386    0.906295   -1.088162
H      4.910252   -0.507859   -1.686870
H      4.904099    0.455710    1.219308
H      5.857879   -0.893579    0.602934
H      3.895590   -2.191378    0.075755
H      3.680430   -1.558714    1.714891

