%chk=opt.chk
%mem=2gb
%nproc=32
#p pbepbe 3-611+G(d) opt scf(xqc,tight)

opt calculation

0 1
C     -2.267045   -1.626413   -0.001491
C     -2.061851   -0.141508    0.326051
C     -2.867492    0.207282    1.587998
C     -2.548922    0.736589   -0.834169
C     -0.573556    0.126236    0.581664
O     -0.114612    0.549057    1.635615
O      0.161011   -0.188278   -0.561303
C      1.539892    0.025124   -0.464946
C      2.058456    1.316293   -0.377712
C      3.441127    1.492784   -0.339402
C      4.289541    0.385029   -0.404486
C      3.758459   -0.902334   -0.512178
C      2.376759   -1.085610   -0.549906
H     -3.329934   -1.862110   -0.125120
H     -1.869243   -2.264026    0.796404
H     -1.756277   -1.910530   -0.928418
H     -2.543481   -0.394403    2.445163
H     -2.740358    1.261126    1.861853
H     -3.938128    0.027474    1.439140
H     -3.625658    0.616347   -0.997723
H     -2.042663    0.484225   -1.772676
H     -2.352796    1.796419   -0.634798
H      1.398518    2.176780   -0.330175
H      3.858521    2.492943   -0.257660
H      5.367130    0.525877   -0.372590
H      4.422680   -1.760746   -0.567653
H      1.959920   -2.083628   -0.641481

