%chk=opt.chk
%mem=2gb
%nproc=32
#p pbepbe 3-611+G(d) opt scf(xqc,tight)

opt calculation

0 1
C      4.258625    0.400624   -0.444159
O      3.544313   -0.821323   -0.568370
C      2.971440   -1.228936    0.673370
O      1.996765   -0.325111    1.192143
C      0.761054   -0.322764    0.605920
C      0.427565   -0.928437   -0.602864
C     -0.879419   -0.843736   -1.094876
C     -1.872217   -0.147862   -0.388739
C     -3.188264   -0.055145   -0.870230
C     -4.161434    0.644554   -0.154942
C     -3.831398    1.260279    1.048805
C     -2.527489    1.177478    1.540019
C     -1.536933    0.476522    0.832608
C     -0.219383    0.382178    1.311197
H      3.586292    1.218865   -0.169829
H      4.706692    0.634594   -1.413745
H      5.060424    0.306145    0.294563
H      2.547583   -2.234079    0.557857
H      3.769152   -1.321321    1.419975
H      1.163263   -1.460724   -1.197898
H     -1.113792   -1.323559   -2.042625
H     -3.464504   -0.528735   -1.809555
H     -5.176125    0.708681   -0.538956
H     -4.587830    1.805996    1.606637
H     -2.287927    1.665388    2.482169
H      0.053546    0.860430    2.249353

