%chk=opt.chk
%mem=2gb
%nproc=32
#p pbepbe 3-611+G(d) opt scf(xqc,tight)

opt calculation

0 1
C      3.761361    1.361862    0.737652
N      2.805694    0.607236   -0.050204
C      3.313682   -0.062221   -1.234776
C      1.566879    0.308561    0.507823
O      1.186744    0.754590    1.585919
O      0.819029   -0.550553   -0.292913
C     -0.442803   -0.870180    0.230224
C     -0.527633   -1.925297    1.137457
C     -1.774019   -2.285845    1.630581
C     -2.915348   -1.600540    1.200088
C     -2.850502   -0.558820    0.280910
N     -3.991098    0.045584   -0.098866
C     -3.910293    1.052784   -0.995456
C     -2.726924    1.496534   -1.551210
C     -1.551111    0.868690   -1.160401
C     -1.588711   -0.181923   -0.223889
H      4.289009    2.064117    0.085773
H      3.273451    1.924925    1.537727
H      4.477538    0.663861    1.181357
H      3.930734    0.636726   -1.806962
H      3.921619   -0.914865   -0.918446
H      2.507522   -0.419491   -1.879748
H      0.365288   -2.450614    1.461596
H     -1.866918   -3.096107    2.348716
H     -3.888637   -1.889071    1.591400
H     -4.859595    1.508116   -1.262930
H     -2.718598    2.310362   -2.266694
H     -0.606360    1.201581   -1.581482

