%chk=opt.chk
%mem=2gb
%nproc=32
#p pbepbe 3-611+G(d) opt scf(xqc,tight)

opt calculation

0 1
C     -2.914712   -2.530138    0.368152
O     -2.653598   -1.133242    0.367757
C     -1.354186   -0.717429    0.183999
C     -0.281730   -1.590643   -0.000503
C      1.020655   -1.113779   -0.183087
C      2.071005   -2.031686   -0.365509
C      3.381731   -1.601656   -0.550636
C      3.658575   -0.244517   -0.555564
C      2.623019    0.677399   -0.375236
C      1.273848    0.279351   -0.183468
C      0.176522    1.191591    0.005885
C      0.328931    2.603213    0.021180
C     -0.747045    3.474646    0.206233
C     -2.019884    2.963889    0.383466
C     -2.209284    1.584284    0.374587
C     -1.137478    0.679379    0.189255
H     -2.392571   -3.029477    1.190832
H     -2.660336   -2.979959   -0.597108
H     -3.988810   -2.668541    0.525179
H     -0.439117   -2.664433   -0.005830
H      1.873760   -3.102030   -0.364786
H      4.180277   -2.324994   -0.690007
H      4.677598    0.105079   -0.699089
H      2.897725    1.728113   -0.388115
H      1.305215    3.059834   -0.112978
H     -0.582967    4.548774    0.210665
H     -2.865960    3.629448    0.528460
H     -3.221184    1.207526    0.516267

