%chk=opt.chk
%mem=2gb
%nproc=32
#p pbepbe 3-611+G(d) opt scf(xqc,tight)

opt calculation

0 1
C      1.853252   -1.506784   -1.298581
C      2.289606   -0.397999   -0.388663
C      3.621307   -0.308178    0.035920
C      4.027935    0.722467    0.888973
C      3.109664    1.676045    1.329365
C      1.779688    1.598643    0.923276
C      1.379962    0.555523    0.086175
O      0.051048    0.517027   -0.347917
C     -0.819216   -0.091141    0.554717
O     -0.513257   -0.558054    1.645042
C     -2.238313   -0.097915   -0.026406
C     -2.698465    1.344299   -0.276358
C     -3.197329   -0.761198    0.975255
C     -2.250489   -0.900199   -1.334421
H      2.710658   -2.064915   -1.689148
H      1.306765   -1.104936   -2.158019
H      1.210263   -2.207808   -0.757123
H      4.354818   -1.040293   -0.294370
H      5.064798    0.780234    1.210964
H      3.430951    2.475959    1.990966
H      1.061875    2.338340    1.263420
H     -2.635807    1.941763    0.640456
H     -2.078494    1.841902   -1.030552
H     -3.735112    1.374206   -0.629957
H     -2.898354   -1.794367    1.187210
H     -3.209731   -0.222288    1.929801
H     -4.222957   -0.782557    0.590066
H     -1.623410   -0.432334   -2.101697
H     -1.866945   -1.914945   -1.177269
H     -3.264713   -0.980494   -1.741123

