%chk=opt.chk
%mem=2gb
%nproc=32
#p pbepbe 3-611+G(d) opt scf(xqc,tight)

opt calculation

0 1
C     -3.207287   -1.609322    2.117590
O     -1.856966   -1.550381    1.676513
C     -1.626372   -0.550384    0.755711
N     -2.620088    0.245462    0.382118
C     -2.274056    1.165083   -0.507471
O     -3.307316    1.990171   -0.898642
C     -2.919644    2.962697   -1.860695
N     -1.062103    1.337016   -1.019387
C     -0.154018    0.483610   -0.558834
O      1.113539    0.645034   -1.109793
C      2.136392   -0.051316   -0.515932
C      2.657473    0.357924    0.715295
C      3.730641   -0.337920    1.271879
C      4.277617   -1.418326    0.585711
F      5.310085   -2.083121    1.120727
C      3.776398   -1.814410   -0.650901
C      2.703179   -1.121813   -1.211271
N     -0.376326   -0.485519    0.322985
H     -3.888255   -1.827255    1.287412
H     -3.287793   -2.430689    2.836315
H     -3.497998   -0.687586    2.633595
H     -3.803332    3.559774   -2.106196
H     -2.570834    2.490497   -2.785771
H     -2.161890    3.642691   -1.455993
H      2.230837    1.207706    1.240145
H      4.144526   -0.045517    2.231390
H      4.225498   -2.655959   -1.168225
H      2.308093   -1.418147   -2.178710

