%chk=opt.chk
%mem=2gb
%nproc=32
#p pbepbe 3-611+G(d) opt scf(xqc,tight)

opt calculation

0 1
C      0.021452    2.889597   -1.654864
O     -0.467382    1.602986   -1.278931
C     -0.394536    1.354837    0.051891
O      0.018102    2.113128    0.913620
C     -0.826831   -0.033110    0.303545
C      0.102241   -0.908047    0.884043
O      1.381159   -0.475188    1.254836
C      2.301866   -0.453659    0.210938
O      2.070821   -0.884632   -0.914845
N      3.514150    0.118042    0.583497
C      3.653568    0.865199    1.821778
C      4.496393    0.374754   -0.450780
C     -0.236621   -2.224092    1.175957
C     -1.515017   -2.680694    0.864354
C     -2.471012   -1.827226    0.286072
C     -3.758117   -2.310744   -0.000245
C     -4.732541   -1.480846   -0.552283
C     -4.434649   -0.152366   -0.822559
C     -3.159167    0.345056   -0.547270
C     -2.142754   -0.475505    0.001660
H      1.078005    2.991502   -1.387320
H     -0.575325    3.678120   -1.185820
H     -0.071448    2.984078   -2.740252
H      4.699081    0.843989    2.142573
H      3.038681    0.440783    2.619304
H      3.342217    1.898626    1.642890
H      5.500551    0.281430   -0.027424
H      4.397579   -0.332414   -1.279082
H      4.348535    1.389775   -0.831621
H      0.487086   -2.891465    1.634546
H     -1.766341   -3.716337    1.086858
H     -4.016217   -3.347005    0.209889
H     -5.723483   -1.872559   -0.766487
H     -5.191831    0.501010   -1.248514
H     -2.968215    1.392975   -0.769833

