%chk=opt.chk
%mem=2gb
%nproc=32
#p pbepbe 3-611+G(d) opt scf(xqc,tight)

opt calculation

0 1
C     -3.509448    0.363325    0.205095
O     -2.535138   -0.013372    1.169825
C     -1.237454   -0.081088    0.743716
C     -0.320717   -0.467851    1.723841
C      1.039768   -0.577743    1.426308
C      1.502627   -0.308374    0.133952
C      2.969560   -0.392146   -0.189654
O      3.578946    0.887264   -0.083602
C      0.583054    0.091389   -0.844317
C     -0.779346    0.200530   -0.543004
H     -3.550646   -0.358271   -0.617538
H     -3.325840    1.377040   -0.166011
H     -4.486272    0.361582    0.698309
H     -0.670438   -0.684121    2.730613
H      1.732318   -0.874356    2.211087
H      3.121579   -0.770296   -1.206067
H      3.481990   -1.077936    0.493214
H      2.933276    1.490770    0.322767
H      0.924837    0.323343   -1.851510
H     -1.452657    0.510310   -1.335137

