%chk=opt.chk
%mem=2gb
%nproc=32
#p pbepbe 3-611+G(d) opt scf(xqc,tight)

opt calculation

0 1
F      3.800636   -0.290414   -0.910931
C      2.622203    0.269493   -0.556402
F      2.789118    0.869970    0.641569
F      2.304217    1.196323   -1.485618
O      1.639114   -0.748036   -0.488413
C      0.369397   -0.383464   -0.143045
C     -0.543450   -1.442742   -0.097454
C     -1.879210   -1.220288    0.241171
C     -2.313450    0.068413    0.537860
C     -1.411551    1.129707    0.495081
C     -0.072974    0.906413    0.155683
H     -0.213045   -2.453196   -0.327781
H     -2.577731   -2.052348    0.272763
H     -3.352709    0.246420    0.802078
H     -1.750029    2.136899    0.726761
H      0.589463    1.766850    0.136678

