%chk=opt.chk
%mem=2gb
%nproc=32
#p pbepbe 3-611+G(d) opt scf(xqc,tight)

opt calculation

0 1
C     -5.019999    0.314866    0.729565
C     -4.373522    0.467411   -0.639989
N     -3.017170   -0.095946   -0.650924
C     -2.915731   -1.509367   -1.037495
C     -2.667663   -1.649241   -2.532671
C     -1.900917    0.652100   -0.286271
C     -2.006339    1.959820    0.228261
C     -0.887885    2.727642    0.590716
C      0.389688    2.207081    0.452103
C      0.524138    0.914793   -0.032882
O      1.788576    0.351154   -0.254192
C      2.601452    0.190311    0.868059
O      2.303162    0.486044    2.018472
C      3.941913   -0.424283    0.447011
C      3.698208   -1.798666   -0.190281
C      4.834774   -0.599758    1.686033
C      4.645549    0.510667   -0.545520
C     -0.591120    0.157015   -0.411636
H     -4.456496    0.840926    1.505951
H     -5.080473   -0.738922    1.021009
H     -6.036309    0.720813    0.714446
H     -4.383054    1.513935   -0.964433
H     -4.995647   -0.057923   -1.376068
H     -3.852193   -2.027231   -0.793406
H     -2.147466   -2.036722   -0.460980
H     -2.614488   -2.706842   -2.809305
H     -3.475889   -1.188032   -3.109909
H     -1.730804   -1.172029   -2.835461
H     -2.976017    2.425584    0.374049
H     -1.027066    3.731399    0.983128
H      1.256929    2.797945    0.726597
H      3.144262   -2.455403    0.490364
H      3.111614   -1.718738   -1.112422
H      4.643434   -2.292126   -0.442486
H      4.362915   -1.256678    2.425995
H      5.025984    0.361423    2.177272
H      5.803387   -1.037627    1.419937
H      5.637176    0.129920   -0.814362
H      4.771357    1.513102   -0.120378
H      4.072372    0.621465   -1.472870
H     -0.400640   -0.829882   -0.817471

