%chk=opt.chk
%mem=2gb
%nproc=32
#p pbepbe 3-611+G(d) opt scf(xqc,tight)

opt calculation

0 1
C     -4.560466   -1.517553    0.859087
C     -3.822325   -0.928948    1.885558
C     -2.549620   -0.419447    1.624942
C     -2.021316   -0.485941    0.334298
O     -0.745506   -0.007459    0.165108
C     -0.408459    0.725011   -0.894087
N     -1.231883    1.257651   -1.772737
N     -0.451124    1.946353   -2.656804
N      0.829407    1.857204   -2.333734
N      0.891162    1.089230   -1.213004
C      2.134557    0.790432   -0.592288
C      3.314605    1.325792   -1.138700
C      4.554135    1.053194   -0.555222
C      4.629916    0.245252    0.575435
C      3.467292   -0.291481    1.123601
C      2.221834   -0.023001    0.545392
C     -2.751328   -1.094055   -0.688911
C     -4.024772   -1.602424   -0.426123
H     -5.552994   -1.912798    1.060521
H     -4.238396   -0.867356    2.887771
H     -1.976049    0.034911    2.427985
H      3.293412    1.962289   -2.022419
H      5.460222    1.473063   -0.985776
H      5.594927    0.032874    1.029039
H      3.529507   -0.924472    2.006228
H      1.355143   -0.474101    1.016422
H     -2.343440   -1.178652   -1.692355
H     -4.598440   -2.065567   -1.224979

