%chk=opt.chk
%mem=2gb
%nproc=32
#p pbepbe 3-611+G(d) opt scf(xqc,tight)

opt calculation

0 1
C     -3.633817    0.581701   -1.553529
C     -2.859374    1.570393   -0.697041
N     -1.956807    0.922381    0.249627
C     -2.455278    0.581391    1.580920
C     -2.970567   -0.846095    1.678215
C     -0.699330    0.524016   -0.199045
O     -0.294021    0.731707   -1.338949
O      0.032006   -0.131352    0.789045
C      1.302333   -0.550756    0.385756
C      1.506291   -1.906645    0.144500
C      2.778130   -2.350283   -0.210317
C      3.833709   -1.439158   -0.309750
C      3.629584   -0.070887   -0.056285
C      4.779818    0.899937   -0.138735
F      5.660303    0.600028   -1.134552
F      4.390222    2.185970   -0.362255
F      5.512801    0.927635    1.009208
C      2.349121    0.367371    0.310255
H     -2.960944   -0.098721   -2.085013
H     -4.313273   -0.023002   -0.947203
H     -4.235357    1.116105   -2.295560
H     -3.546061    2.223627   -0.147976
H     -2.267657    2.216501   -1.356225
H     -3.242970    1.289522    1.860092
H     -1.641667    0.716263    2.302616
H     -2.203535   -1.571298    1.389293
H     -3.837269   -1.002234    1.030758
H     -3.276949   -1.066290    2.705687
H      0.683284   -2.609986    0.227343
H      2.949708   -3.405375   -0.409244
H      4.823285   -1.800280   -0.588074
H      2.164280    1.417813    0.523508

