%chk=opt.chk
%mem=2gb
%nproc=32
#p pbepbe 3-611+G(d) opt scf(xqc,tight)

opt calculation

0 1
C     -2.925968   -0.651877    0.050059
O     -2.112097    0.512769   -0.013358
C     -0.760280    0.321993   -0.081421
C     -0.008238    1.498778   -0.142099
C      1.386574    1.452164   -0.215016
C      2.042146    0.219022   -0.227747
C      3.472628    0.162455   -0.302386
N      4.630675    0.113472   -0.362756
C      1.293667   -0.960846   -0.167181
C     -0.103890   -0.909521   -0.094206
H     -2.809276   -1.264215   -0.850202
H     -3.969991   -0.327864    0.099367
H     -2.714190   -1.232412    0.954035
H     -0.515415    2.461283   -0.132403
H      1.950096    2.381879   -0.261346
H      1.790986   -1.929288   -0.176243
H     -0.647426   -1.847791   -0.048764

