%chk=opt.chk
%mem=2gb
%nproc=32
#p pbepbe 3-611+G(d) opt scf(xqc,tight)

opt calculation

0 1
C     -4.462194    0.623887    0.160937
C     -2.953208    0.786204    0.200542
O     -2.366915   -0.469522   -0.136275
C     -1.000731   -0.535596   -0.157318
C     -0.485860   -1.787559   -0.492946
C      0.893217   -1.998087   -0.552598
C      1.785463   -0.953277   -0.275788
C      3.175591   -1.144627   -0.330344
C      4.051232   -0.094277   -0.052013
C      3.548532    1.158990    0.283935
C      2.168959    1.364715    0.342303
C      1.272404    0.318964    0.065253
C     -0.121175    0.512573    0.120420
H     -4.785421   -0.149187    0.865965
H     -4.789638    0.304828   -0.834135
H     -4.962158    1.563271    0.413041
H     -2.652658    1.087895    1.210554
H     -2.656967    1.551659   -0.525952
H     -1.164935   -2.608332   -0.710454
H      1.263099   -2.985729   -0.817277
H      3.586746   -2.117263   -0.591117
H      5.124976   -0.256083   -0.097893
H      4.229273    1.977990    0.500967
H      1.797401    2.352126    0.606924
H     -0.495033    1.496435    0.384099

