%chk=opt.chk
%mem=2gb
%nproc=32
#p pbepbe 3-611+G(d) opt scf(xqc,tight)

opt calculation

0 1
C     -2.918386    0.670091    1.081789
C     -1.944308    0.249724   -0.030598
C     -2.313574   -1.159843   -0.510963
C     -2.044558    1.254125   -1.186204
C     -0.514113    0.243906    0.521296
O     -0.208844    0.517462    1.674495
O      0.378290   -0.128555   -0.485495
C      1.745599   -0.166189   -0.186577
C      2.471629   -1.250667   -0.667438
C      3.844316   -1.295534   -0.442390
C      4.434588   -0.241723    0.240017
N      3.755922    0.833595    0.698688
C      2.419643    0.849993    0.476073
H     -3.952696    0.685795    0.720267
H     -2.681061    1.671220    1.460150
H     -2.872042   -0.019990    1.932303
H     -1.679000   -1.482256   -1.344146
H     -2.190785   -1.894498    0.293175
H     -3.353744   -1.202598   -0.852698
H     -1.408803    0.964332   -2.030374
H     -3.072421    1.329366   -1.558253
H     -1.725507    2.253315   -0.867962
H      1.977560   -2.050982   -1.208963
H      4.442147   -2.128925   -0.793820
H      5.502752   -0.232246    0.438642
H      1.907395    1.731083    0.849239

