%chk=opt.chk
%mem=2gb
%nproc=32
#p pbepbe 3-611+G(d) opt scf(xqc,tight)

opt calculation

0 1
C      5.566150   -1.178619   -2.459947
C      5.517546   -0.249265   -1.256601
N      4.696428   -0.797840   -0.182775
C      5.340095   -1.656244    0.808967
C      5.825766   -0.861421    2.010542
C      3.340930   -0.488186   -0.144487
O      2.782016    0.196317   -0.997028
O      2.703563   -1.039774    0.966054
C      1.345480   -0.729159    1.107487
C      0.434509   -1.785049    1.082183
C     -0.922023   -1.518714    1.265644
C     -1.348845   -0.198126    1.450167
C     -2.771847    0.068792    1.709377
O     -3.183005   -0.288445    2.813667
N     -3.568567    0.720416    0.755468
C     -3.265605    0.851060   -0.694769
C     -2.944502   -0.476292   -1.383408
C     -2.232939    1.927464   -1.018179
C     -4.932312    1.086618    1.206214
C     -5.330820    2.512423    0.814930
C     -5.970320    0.062109    0.742882
C     -0.422114    0.846113    1.542007
C      0.935070    0.580435    1.362461
H      4.562903   -1.355797   -2.863470
H      5.992396   -2.151764   -2.191074
H      6.181407   -0.741109   -3.253377
H      5.110247    0.719667   -1.568170
H      6.526843   -0.065507   -0.871512
H      4.633641   -2.424838    1.140777
H      6.178215   -2.178387    0.333884
H      6.308588   -1.525123    2.735300
H      6.550642   -0.096993    1.710772
H      4.994949   -0.353403    2.511030
H      0.777163   -2.803741    0.925724
H     -1.644977   -2.330484    1.266176
H     -4.193475    1.187333   -1.170727
H     -3.020528   -0.364386   -2.471538
H     -3.644520   -1.260785   -1.076433
H     -1.929506   -0.819820   -1.174931
H     -2.406875    2.834541   -0.430768
H     -1.208907    1.591933   -0.843392
H     -2.293459    2.196330   -2.079412
H     -4.945872    1.073425    2.302980
H     -5.497517    2.621669   -0.260792
H     -6.262032    2.798119    1.317030
H     -4.555289    3.226938    1.109935
H     -6.058388    0.037447   -0.347830
H     -5.697288   -0.944246    1.076760
H     -6.957276    0.299330    1.153207
H     -0.755922    1.858244    1.753071
H      1.660183    1.386794    1.417930

