%chk=opt.chk
%mem=2gb
%nproc=32
#p pbepbe 3-611+G(d) opt scf(xqc,tight)

opt calculation

0 1
C     -2.949529   -0.957936   -0.228528
O     -1.616792   -1.386233    0.024008
C     -0.638800   -0.431320   -0.010753
C     -0.829132    0.928068   -0.272151
C      0.259172    1.807423   -0.279015
C      1.546094    1.334654   -0.024639
C      1.735656   -0.027488    0.237113
N      3.085849   -0.534754    0.505941
O      4.020456    0.279549    0.490123
O      3.215100   -1.746006    0.733100
C      0.648719   -0.910206    0.244744
H     -3.600521   -1.835061   -0.163384
H     -3.282481   -0.238828    0.527131
H     -3.046423   -0.545121   -1.238076
H     -1.814096    1.337446   -0.475109
H      0.099996    2.864138   -0.483709
H      2.380977    2.032338   -0.033906
H      0.785754   -1.970663    0.447111

