%chk=opt.chk
%mem=2gb
%nproc=32
#p pbepbe 3-611+G(d) opt scf(xqc,tight)

opt calculation

0 1
C     -2.886000    3.219686    1.393742
O     -2.154639    2.332174    0.560976
C     -2.351267    0.970163    0.946276
C     -1.589256    0.060744    0.001719
C     -2.303068   -0.764059   -0.897548
O     -3.671868   -0.678920   -0.850970
C     -4.409185   -1.339095   -1.871902
C     -1.609786   -1.619777   -1.753823
C     -0.216409   -1.663153   -1.734455
C      0.517735   -0.852718   -0.862984
C      1.920345   -0.917192   -0.866839
C      2.660327   -0.121759    0.001648
O      4.054675   -0.182802   -0.082647
C      4.692795   -0.659895    1.057225
C      6.173483   -0.647576    0.817274
O      4.167941   -1.038957    2.095092
C      2.033613    0.772490    0.856166
C      0.638541    0.838501    0.865309
C     -0.159123    0.029960    0.017403
H     -3.960065    3.028028    1.309671
H     -2.688154    4.243110    1.064028
H     -2.565322    3.120378    2.435269
H     -3.424099    0.750780    0.955840
H     -1.994056    0.813124    1.971898
H     -4.105085   -0.998802   -2.867396
H     -5.464483   -1.080873   -1.740898
H     -4.320022   -2.426193   -1.778608
H     -2.122889   -2.277087   -2.447476
H      0.292326   -2.344118   -2.413798
H      2.441562   -1.586884   -1.545531
H      6.418936   -1.307205   -0.018749
H      6.507794    0.373041    0.614845
H      6.688090   -1.011071    1.711379
H      2.610705    1.414029    1.514516
H      0.175907    1.551928    1.543350

