%chk=opt.chk
%mem=2gb
%nproc=32
#p pbepbe 3-611+G(d) opt scf(xqc,tight)

opt calculation

0 1
C     -2.740985    0.072153   -0.103601
O     -1.660033   -0.460199   -0.858819
C     -0.398951   -0.224194   -0.385861
C      0.627013   -0.768634   -1.164532
C      1.964765   -0.604104   -0.798405
C      2.276961    0.110106    0.354704
Br     4.083959    0.338567    0.859084
C      1.264120    0.657847    1.139632
C     -0.074990    0.490513    0.768967
H     -3.670655   -0.202477   -0.611266
H     -2.770534   -0.360115    0.902051
H     -2.693882    1.165425   -0.063586
H      0.380272   -1.326244   -2.065044
H      2.746931   -1.035005   -1.417059
H      1.503729    1.216237    2.040809
H     -0.837719    0.930126    1.402925

