%chk=opt.chk
%mem=2gb
%nproc=32
#p pbepbe 3-611+G(d) opt scf(xqc,tight)

opt calculation

0 1
O     -1.095603   -1.697172   -0.823940
C     -1.565244   -0.719400   -0.269230
O     -0.940666    0.267503    0.462286
C      0.437099    0.069593    0.544214
C      0.956320   -0.685765    1.590192
C      2.338740   -0.837378    1.696247
C      3.201992   -0.225599    0.769902
C      4.595235   -0.369872    0.865333
C      5.441790    0.244943   -0.058869
C      4.907417    1.011740   -1.090257
C      3.524686    1.166118   -1.201096
C      2.658722    0.554444   -0.280573
C      1.267417    0.701242   -0.380043
C     -2.991048   -0.391687   -0.280382
C     -3.512233    0.418929   -1.293046
Cl    -2.522572    1.091906   -2.538346
C     -4.878241    0.715818   -1.310867
C     -5.719927    0.203585   -0.322553
C     -5.197314   -0.605625    0.687228
C     -3.832168   -0.906129    0.710521
Cl    -3.245799   -1.902904    1.993295
H      0.297242   -1.158132    2.311961
H      2.741032   -1.437953    2.508848
H      5.032640   -0.965899    1.663097
H      6.518353    0.122966    0.026838
H      5.566009    1.488992   -1.811142
H      3.126079    1.766690   -2.015690
H      0.828558    1.298323   -1.174335
H     -5.294383    1.346180   -2.094360
H     -6.783152    0.434884   -0.339362
H     -5.860982   -1.000340    1.454132

