%chk=opt.chk
%mem=2gb
%nproc=32
#p pbepbe 3-611+G(d) opt scf(xqc,tight)

opt calculation

0 1
C      7.851158   -0.516818    1.342007
O      6.492594   -0.712174    0.946893
C      5.791271    0.439759    0.799631
O      6.226937    1.567211    0.972829
C      4.388935    0.154222    0.389954
C      3.916132   -1.146724    0.186741
C      2.589436   -1.359656   -0.198494
C      1.713978   -0.279078   -0.386184
C      0.380899   -0.481070   -0.772338
C     -0.466210    0.614272   -0.935959
O     -1.779168    0.412734   -1.363658
C     -2.654470    0.134043   -0.326342
O     -2.375791    0.054681    0.860488
O     -3.886564   -0.038005   -0.869543
C     -5.028834   -0.343841   -0.031644
C     -6.209612   -0.457957   -1.008219
C     -5.318428    0.793786    0.953931
C     -4.853217   -1.689183    0.681561
C     -0.011099    1.916078   -0.757870
C      1.313407    2.125924   -0.374590
C      2.186455    1.040679   -0.182875
C      3.521624    1.240210    0.203590
H      8.322033   -1.499587    1.432476
H      7.899692   -0.018618    2.315382
H      8.392185    0.057966    0.583771
H      4.566391   -2.007104    0.324440
H      2.243675   -2.380573   -0.348917
H     -0.001479   -1.483878   -0.941304
H     -6.345389    0.475870   -1.566309
H     -7.145873   -0.690195   -0.489852
H     -6.024051   -1.239435   -1.754403
H     -4.542311    0.878857    1.720422
H     -5.354123    1.758175    0.434800
H     -6.272300    0.640491    1.470145
H     -5.777768   -1.999262    1.180465
H     -4.068709   -1.649434    1.443182
H     -4.561634   -2.470717   -0.029075
H     -0.675999    2.760572   -0.911449
H      1.662673    3.146004   -0.227460
H      3.893553    2.251774    0.362582

