%chk=opt.chk
%mem=2gb
%nproc=32
#p pbepbe 3-611+G(d) opt scf(xqc,tight)

opt calculation

0 1
C     -4.984610    1.146582    1.011621
O     -3.759214    1.813521    1.282366
C     -2.658841    1.184160    0.740058
N     -2.817097    0.066801    0.039028
C     -1.683697   -0.439784   -0.432841
O     -1.709811   -1.595708   -1.183689
C     -3.012952   -2.140985   -1.339334
N     -0.473914    0.068293   -0.258152
C     -0.449278    1.181243    0.469447
O      0.760539    1.825911    0.710078
C      1.897434    1.121645    0.403185
C      2.382650    0.151708    1.282993
C      3.564516   -0.524480    0.977882
C      4.258508   -0.214040   -0.196726
C      5.509413   -0.925526   -0.528588
O      5.983242   -1.788069    0.200235
C      3.782191    0.774301   -1.065039
C      2.600070    1.450567   -0.757463
N     -1.508100    1.790929    0.987377
H     -5.188871    1.110828   -0.064214
H     -4.995105    0.141159    1.446883
H     -5.788541    1.720352    1.482885
H     -3.446249   -2.419228   -0.372226
H     -2.924279   -3.052945   -1.937721
H     -3.670476   -1.451540   -1.880371
H      1.845373   -0.080482    2.198300
H      3.942404   -1.288534    1.654177
H      6.002478   -0.639419   -1.472721
H      4.318464    1.026601   -1.975875
H      2.223751    2.224032   -1.421553

