%chk=opt.chk
%mem=2gb
%nproc=32
#p pbepbe 3-611+G(d) opt scf(xqc,tight)

opt calculation

0 1
C     -3.427844   -0.291152    1.018048
N     -2.387366   -0.185479    0.013649
C     -2.790008    0.270636   -1.304988
C     -1.056794   -0.228327    0.419506
O     -0.712008   -0.473691    1.571625
O     -0.175620    0.041712   -0.625122
C      1.181914    0.042255   -0.285431
C      1.988718   -0.963390   -0.813536
C      3.355377   -0.955314   -0.537428
C      3.903128    0.061065    0.248957
C      3.087158    1.074495    0.757624
C      1.719842    1.072595    0.484402
H     -3.058392   -0.748453    1.939753
H     -4.244693   -0.903671    0.625460
H     -3.798495    0.712979    1.244613
H     -2.004465    0.118541   -2.048757
H     -3.678483   -0.283354   -1.621902
H     -3.024215    1.337630   -1.247091
H      1.558375   -1.747008   -1.428997
H      3.994650   -1.739521   -0.934045
H      4.968455    0.063911    0.465699
H      3.517420    1.863968    1.368030
H      1.083347    1.859575    0.876348

