%chk=opt.chk
%mem=2gb
%nproc=32
#p pbepbe 3-611+G(d) opt scf(xqc,tight)

opt calculation

0 1
C     -3.580085    1.703424    0.427043
C     -2.899034    1.094907   -0.788343
N     -1.898406    0.105774   -0.406891
C     -2.324255   -1.281902   -0.247911
C     -2.169193   -2.068356   -1.539401
C     -0.585442    0.519502   -0.202520
O     -0.228204    1.689820   -0.298717
O      0.256861   -0.542401    0.115249
C      1.591648   -0.175963    0.343542
C      1.995296    0.144700    1.649586
C      1.017996    0.173628    2.787197
C      3.335430    0.486699    1.863937
C      4.247283    0.477004    0.806714
C      3.833108    0.124948   -0.479295
C      2.499392   -0.219580   -0.726671
C      2.057127   -0.585462   -2.112401
H     -4.089874    0.936584    1.019140
H     -4.322350    2.444746    0.115783
H     -2.853110    2.198923    1.078933
H     -2.420565    1.892383   -1.367897
H     -3.636613    0.618352   -1.443353
H     -3.368918   -1.295425    0.081922
H     -1.734949   -1.758864    0.542471
H     -2.769328   -1.628336   -2.342433
H     -1.126504   -2.081256   -1.872350
H     -2.495434   -3.102964   -1.396127
H      1.533047    0.194708    3.753501
H      0.386857   -0.721021    2.778552
H      0.384753    1.063474    2.717577
H      3.679936    0.766018    2.856942
H      5.285065    0.747107    0.985438
H      4.560715    0.124901   -1.287571
H      1.481475   -1.516550   -2.098736
H      2.913639   -0.744089   -2.776184
H      1.442638    0.214569   -2.536727

