%chk=opt.chk
%mem=2gb
%nproc=32
#p pbepbe 3-611+G(d) opt scf(xqc,tight)

opt calculation

0 1
C     -1.831995   -2.974067   -1.151645
C     -2.656527   -1.696272   -1.161893
N     -2.059367   -0.660586   -0.329421
C     -2.405933   -0.627600    1.088734
C     -3.559126    0.324502    1.359750
C     -1.119823    0.198101   -0.891036
O     -0.758683    0.124931   -2.062672
O     -0.654177    1.138592    0.022193
C      0.413862    1.909326   -0.454915
C      0.120386    3.133017   -1.060583
C      1.164003    3.944975   -1.497933
C      2.486088    3.538128   -1.315588
C      2.769238    2.318497   -0.691170
C      1.735718    1.481709   -0.243022
C      2.048511    0.212799    0.422857
C      2.075846   -0.988649   -0.301524
C      2.361331   -2.199114    0.333251
C      2.627706   -2.222648    1.700639
C      2.608143   -1.037512    2.433634
C      2.320377    0.172781    1.798421
H     -1.744316   -3.379913   -0.138697
H     -0.819094   -2.792845   -1.526009
H     -2.300149   -3.733634   -1.785094
H     -2.737745   -1.330801   -2.191810
H     -3.674343   -1.891689   -0.806852
H     -2.667132   -1.640614    1.414106
H     -1.532665   -0.321344    1.674638
H     -3.804023    0.331727    2.426210
H     -4.454129    0.025009    0.804717
H     -3.307598    1.346750    1.059123
H     -0.910661    3.444191   -1.196466
H      0.948406    4.893857   -1.981935
H      3.300678    4.170723   -1.659490
H      3.806772    2.019426   -0.555573
H      1.864043   -0.983217   -1.369993
H      2.374644   -3.120983   -0.242023
H      2.851590   -3.164440    2.194551
H      2.816409   -1.053671    3.500084
H      2.303737    1.090556    2.382438

