%chk=opt.chk
%mem=2gb
%nproc=32
#p pbepbe 3-611+G(d) opt scf(xqc,tight)

opt calculation

0 1
C      3.867142   -0.199127   -0.135728
O      2.844761   -0.018772    0.836636
C      1.554731   -0.020171    0.384606
C      0.588480    0.160411    1.377812
C     -0.773962    0.180766    1.060458
C     -1.183331    0.018955   -0.266228
C     -2.622107    0.031675   -0.665767
C     -3.672734    0.225572    0.396098
O     -2.931558   -0.114916   -1.846634
C     -0.214189   -0.162098   -1.261869
C      1.148027   -0.181678   -0.938904
H      3.778596   -1.174667   -0.625167
H      4.830162   -0.173298    0.383260
H      3.862103    0.613993   -0.869132
H      0.902102    0.286806    2.412001
H     -1.486361    0.324031    1.866958
H     -3.545307    1.195998    0.882677
H     -3.628585   -0.586974    1.125855
H     -4.662634    0.208142   -0.070689
H     -0.514929   -0.289738   -2.300793
H      1.859592   -0.324911   -1.745452

