%chk=opt.chk
%mem=2gb
%nproc=32
#p pbepbe 3-611+G(d) opt scf(xqc,tight)

opt calculation

0 1
C     -3.242845   -0.558583    1.330297
O     -2.319690   -0.067235    0.370692
C     -1.510294   -1.114627   -0.158613
O     -0.630977   -0.652019   -1.183086
C      0.516575   -0.023807   -0.785862
C      0.759641    0.513160    0.478778
C      1.980604    1.136423    0.755104
C      2.959825    1.231556   -0.232322
C      2.717056    0.710149   -1.500690
C      1.497297    0.089169   -1.775263
H     -2.714094   -1.016359    2.171975
H     -3.923485   -1.283505    0.873456
H     -3.831240    0.283218    1.705102
H     -2.164758   -1.857174   -0.629448
H     -0.953622   -1.626904    0.637462
H      0.010217    0.482935    1.262821
H      2.161828    1.556824    1.740937
H      3.906323    1.719684   -0.015907
H      3.472519    0.789225   -2.277579
H      1.309121   -0.312130   -2.767854

