%chk=opt.chk
%mem=2gb
%nproc=32
#p pbepbe 3-611+G(d) opt scf(xqc,tight)

opt calculation

0 1
C      3.334723   -0.035962   -0.287881
C      1.860480    0.080189   -0.631600
O      1.112522   -0.123166    0.565549
C     -0.250089   -0.057592    0.466306
C     -0.979010    0.189952   -0.697818
C     -2.376572    0.229788   -0.656247
C     -3.050176    0.022824    0.546414
C     -2.327650   -0.224559    1.710822
C     -0.932951   -0.264067    1.668085
H      3.555142   -1.021001    0.136741
H      3.955087    0.112693   -1.176149
H      3.614220    0.706395    0.467089
H      1.665777    1.079806   -1.037024
H      1.605439   -0.684467   -1.374411
H     -0.493238    0.356022   -1.653083
H     -2.939760    0.422980   -1.565743
H     -4.136098    0.054375    0.575585
H     -2.846217   -0.386780    2.651764
H     -0.371629   -0.457428    2.578837

