%chk=opt.chk
%mem=2gb
%nproc=32
#p pbepbe 3-611+G(d) opt scf(xqc,tight)

opt calculation

0 1
C      7.889221   -0.782938    0.715118
O      7.221212    0.471998    0.734538
C      5.858488    0.451139    0.617110
C      5.253984    1.707551    0.642344
C      3.867647    1.833011    0.532217
C      3.057725    0.697154    0.394542
C      1.659550    0.802779    0.282817
C      0.841931   -0.331429    0.142164
C     -0.619391   -0.202767    0.027528
C     -1.315856   -0.769582   -1.047232
C     -2.708226   -0.648016   -1.159734
C     -3.460381    0.044867   -0.199581
C     -4.988458    0.197841   -0.289715
C     -5.357628    1.695764   -0.352378
C     -5.611710   -0.478461   -1.531770
C     -5.647845   -0.436130    0.954164
C     -2.754936    0.611094    0.877822
C     -1.363992    0.490604    0.988774
C      1.460571   -1.588818    0.115128
C      2.849149   -1.712086    0.226333
C      3.662175   -0.578072    0.366640
C      5.061526   -0.686915    0.479321
H      8.961788   -0.592274    0.818516
H      7.579576   -1.408185    1.559069
H      7.733351   -1.298478   -0.238287
H      5.867799    2.598667    0.748674
H      3.426920    2.826937    0.554946
H      1.197536    1.788979    0.293539
H     -0.774739   -1.307032   -1.823853
H     -3.178221   -1.110693   -2.023080
H     -6.440843    1.832080   -0.452269
H     -5.048860    2.236919    0.548709
H     -4.879434    2.184319   -1.209662
H     -6.699723   -0.342318   -1.551542
H     -5.217444   -0.054380   -2.462620
H     -5.422388   -1.558205   -1.541000
H     -5.380606   -1.495631    1.045437
H     -6.740832   -0.371407    0.898430
H     -5.344875    0.060446    1.882475
H     -3.281200    1.158313    1.657072
H     -0.866616    0.937451    1.847431
H      0.859191   -2.490826    0.019079
H      3.288854   -2.706705    0.204785
H      5.506009   -1.676564    0.456144

