%chk=opt.chk
%mem=2gb
%nproc=32
#p pbepbe 3-611+G(d) opt scf(xqc,tight)

opt calculation

0 1
C     -6.960655    0.617208    0.112279
O     -6.052357   -0.445632    0.371600
C     -4.718432   -0.147767    0.313081
C     -4.169120    1.099255    0.024723
C     -2.779882    1.265300   -0.002367
C     -1.918085    0.188287    0.257048
C     -0.520090    0.341502    0.232674
C      0.333861   -0.740917    0.485663
C      1.796569   -0.598984    0.494651
C      2.478929    0.132991   -0.401025
C      3.941735    0.277133   -0.395364
C      4.798423   -0.793020   -0.105598
C      6.185079   -0.623050   -0.139645
C      6.728986    0.615382   -0.473600
C      5.887745    1.682912   -0.779262
C      4.501303    1.512783   -0.745955
C     -0.225926   -1.984395    0.792708
C     -1.613247   -2.152552    0.819686
C     -2.471119   -1.075669    0.551862
C     -3.867675   -1.225785    0.574873
H     -7.975782    0.217466    0.196931
H     -6.838218    1.001767   -0.905662
H     -6.854896    1.416568    0.853166
H     -4.789060    1.964475   -0.183783
H     -2.374249    2.248841   -0.229876
H     -0.096324    1.321588    0.024533
H      2.313091   -1.140038    1.283713
H      1.960744    0.672628   -1.190057
H      4.397101   -1.773499    0.137942
H      6.839251   -1.460248    0.089288
H      7.807479    0.746836   -0.500729
H      6.309360    2.648686   -1.045141
H      3.861187    2.358060   -0.988009
H      0.412139   -2.839303    1.004974
H     -2.019655   -3.134116    1.053507
H     -4.308207   -2.194693    0.800514

