%chk=opt.chk
%mem=2gb
%nproc=32
#p pbepbe 3-611+G(d) opt scf(xqc,tight)

opt calculation

0 1
C      3.970705    0.949098    2.003577
C      3.111430    0.147253    1.072348
C      3.688137   -0.775773    0.190605
C      2.889087   -1.551121   -0.657261
C      1.495408   -1.427443   -0.633965
C      0.640414   -2.255803   -1.545012
C      0.932524   -0.495027    0.245021
O     -0.459155   -0.380154    0.328068
C     -0.981142    0.690239   -0.395587
O     -0.335486    1.495683   -1.054962
C     -2.507629    0.711032   -0.250627
C     -3.079879    1.897699   -1.042668
C     -3.091674   -0.591792   -0.812993
C     -2.881377    0.872940    1.228672
C      1.719256    0.270931    1.108735
H      4.948284    1.153625    1.554460
H      4.118688    0.402629    2.940044
H      3.507906    1.916097    2.227132
H      4.768814   -0.897536    0.156027
H      3.367871   -2.255243   -1.334088
H      0.165486   -1.619623   -2.298560
H     -0.133389   -2.778528   -0.973400
H      1.230825   -3.015803   -2.067512
H     -2.677957    2.849910   -0.677309
H     -2.827940    1.823586   -2.106990
H     -4.171650    1.941988   -0.960107
H     -2.780760   -0.745870   -1.852752
H     -4.186930   -0.580126   -0.784997
H     -2.756308   -1.464957   -0.242068
H     -2.544780    0.018783    1.826920
H     -2.418579    1.770211    1.655477
H     -3.966262    0.957845    1.356648
H      1.246062    0.965251    1.797122

