%chk=opt.chk
%mem=2gb
%nproc=32
#p pbepbe 3-611+G(d) opt scf(xqc,tight)

opt calculation

0 1
C      5.141364    0.501736   -0.348133
O      4.159439   -0.017061    0.546693
C      2.896175   -0.009887    0.040561
O      2.586556    0.393223   -1.071908
O      2.052004   -0.533743    1.004401
C      0.717767   -0.578344    0.597966
C      0.252359   -1.683227   -0.107536
C     -1.093959   -1.740605   -0.467826
C     -1.977884   -0.706382   -0.112337
C     -3.335121   -0.752144   -0.468448
C     -4.203733    0.278553   -0.105330
C     -3.727768    1.367856    0.618592
C     -2.381421    1.430523    0.981255
C     -1.493619    0.403294    0.623208
C     -0.138075    0.453194    0.980755
H      4.928794    1.548444   -0.587641
H      5.189325   -0.103095   -1.259190
H      6.113707    0.452622    0.149890
H      0.925021   -2.490675   -0.379434
H     -1.452479   -2.601184   -1.028136
H     -3.727123   -1.594556   -1.033931
H     -5.251889    0.229765   -0.388739
H     -4.403741    2.170739    0.900995
H     -2.028772    2.290909    1.545607
H      0.253072    1.290050    1.552317

