%chk=opt.chk
%mem=2gb
%nproc=32
#p pbepbe 3-611+G(d) opt scf(xqc,tight)

opt calculation

0 1
C      5.251633    0.058404   -0.957423
O      3.841095    0.204011   -0.876620
C      3.339793   -0.235457    0.385596
C      1.839458   -0.081657    0.436362
C      1.209304    0.285430    1.630716
C     -0.182919    0.390468    1.697631
C     -0.980991    0.121323    0.574828
C     -2.384505    0.223246    0.629126
C     -3.165791   -0.049783   -0.495539
O     -4.530655    0.014325   -0.564096
C     -5.217307    0.407965    0.616892
C     -2.541572   -0.428038   -1.683823
C     -1.151070   -0.533685   -1.755069
C     -0.357116   -0.261675   -0.632473
C      1.043570   -0.363346   -0.684633
H      5.578081    0.406491   -1.941054
H      5.535625   -0.992608   -0.847117
H      5.744650    0.664637   -0.191358
H      3.805238    0.364105    1.176881
H      3.592037   -1.291215    0.540146
H      1.797115    0.496076    2.521301
H     -0.640979    0.684395    2.639386
H     -2.844477    0.519048    1.566223
H     -5.050631   -0.308742    1.427812
H     -4.934182    1.421607    0.919328
H     -6.288658    0.414569    0.394137
H     -3.142525   -0.641707   -2.564236
H     -0.692960   -0.828583   -2.696216
H      1.528742   -0.659604   -1.613761

