%chk=opt.chk
%mem=2gb
%nproc=32
#p pbepbe 3-611+G(d) opt scf(xqc,tight)

opt calculation

0 1
C      6.346637   -1.875648    1.330950
N      5.557810   -0.663482    1.227857
C      5.844416    0.390958    2.184109
C      4.398085   -0.682955    0.458837
O      4.071009   -1.635364   -0.242662
O      3.659495    0.490894    0.584377
C      2.473829    0.509668   -0.154974
C      2.451024    1.199605   -1.361759
C      1.258026    1.270538   -2.080939
C      0.086239    0.668183   -1.590181
C     -1.119446    0.729388   -2.307509
C     -2.278522    0.132441   -1.807776
C     -2.244892   -0.520092   -0.575998
O     -3.344444   -1.156477   -0.046169
C     -4.523361   -0.446709   -0.001706
C     -4.599784    0.867622    0.466740
C     -5.835401    1.514849    0.516486
C     -6.991698    0.845126    0.113973
C     -6.916246   -0.474963   -0.331398
C     -5.682181   -1.124011   -0.382865
C     -1.051109   -0.613240    0.140103
C      0.120935   -0.016671   -0.349535
C      1.325405   -0.084652    0.365779
H      6.144481   -2.563118    0.505431
H      7.409001   -1.614267    1.317728
H      6.102081   -2.373124    2.274087
H      5.372054    1.335273    1.903897
H      6.925946    0.547287    2.235820
H      5.469870    0.082031    3.163638
H      3.350648    1.671729   -1.744239
H      1.247741    1.800472   -3.030947
H     -1.164253    1.239766   -3.267067
H     -3.197264    0.175964   -2.385630
H     -3.707373    1.390527    0.798847
H     -5.896929    2.539370    0.874671
H     -7.953676    1.349686    0.154922
H     -7.818478   -0.999166   -0.635747
H     -5.622210   -2.153623   -0.725037
H     -1.043466   -1.151675    1.084501
H      1.376002   -0.602142    1.319387

