%chk=opt.chk
%mem=2gb
%nproc=32
#p pbepbe 3-611+G(d) opt scf(xqc,tight)

opt calculation

0 1
C     -6.484603   -2.149073    0.654516
C     -6.050277   -1.422170   -0.608070
N     -5.125604   -0.334014   -0.312996
C     -5.681755    0.986458   -0.030196
C     -5.794908    1.829946   -1.289796
C     -3.758530   -0.591813   -0.314584
O     -3.283688   -1.704719   -0.519947
O     -3.005265    0.553312   -0.065146
C     -1.619062    0.365343   -0.040730
C     -1.015383   -0.306361    1.017296
C      0.373846   -0.430407    1.039725
C      1.162323    0.128059    0.018280
C      2.562425    0.008455    0.031488
C      3.341094    0.572215   -0.989286
C      4.825906    0.468812   -1.011567
O      5.521207    0.960674   -1.886165
O      5.271172   -0.233549    0.059624
C      6.697335   -0.406141    0.156497
C      7.314700    0.816762    0.825263
C      6.941494   -1.657895    0.990411
C      2.713246    1.262117   -2.032105
C      1.322342    1.387999   -2.058221
C      0.534424    0.826574   -1.042482
C     -0.862913    0.945074   -1.057398
H     -7.173603   -2.962436    0.407267
H     -6.992007   -1.469414    1.346693
H     -5.623502   -2.576583    1.178617
H     -6.920073   -1.014855   -1.135080
H     -5.568449   -2.136530   -1.285049
H     -5.047749    1.502832    0.698408
H     -6.666181    0.863509    0.434639
H     -4.815510    1.978844   -1.755935
H     -6.214155    2.812581   -1.053034
H     -6.445081    1.349279   -2.027964
H     -1.615323   -0.739461    1.811822
H      0.837982   -0.969164    1.863092
H      3.041819   -0.529719    0.846351
H      7.134204   -0.560464   -0.837693
H      7.142898    1.717366    0.226897
H      8.393849    0.693028    0.958080
H      6.858322    0.999573    1.804415
H      6.488506   -1.564064    1.983692
H      6.476806   -2.528307    0.514529
H      8.011249   -1.855140    1.108930
H      3.304273    1.704895   -2.832003
H      0.859135    1.927488   -2.881915
H     -1.366935    1.481084   -1.856748

