%chk=opt.chk
%mem=2gb
%nproc=32
#p pbepbe 3-611+G(d) opt scf(xqc,tight)

opt calculation

0 1
C     -2.743179   -1.149774    1.546061
N     -2.489602   -0.190191    0.472226
C     -3.433801    0.656003   -0.117674
O     -3.123939    1.370259   -1.082305
C     -4.888886    0.757550    0.432979
C     -5.598769   -0.596374    0.563766
C     -5.719330    1.591879   -0.579540
C     -4.904888    1.533242    1.758977
C     -1.109519   -0.077580    0.065740
C     -0.513958    1.193183    0.155850
C      0.842018    1.362168   -0.088924
C      1.614606    0.250664   -0.413500
O      2.978228    0.461118   -0.669918
C      3.759068    0.527655    0.482499
O      3.351605    0.410585    1.631842
C      5.223596    0.771954    0.099161
C      6.080467    0.838416    1.373686
C      5.340674    2.105655   -0.650330
C      5.724953   -0.382664   -0.778171
C      1.057778   -1.035058   -0.573068
C      1.841112   -2.142320   -0.968763
C      1.277440   -3.401067   -1.164991
C     -0.085374   -3.574497   -0.986833
C     -0.876247   -2.493125   -0.592303
C     -0.332944   -1.207601   -0.343590
H     -1.811152   -1.524407    1.982236
H     -3.299830   -0.680101    2.354468
H     -3.318880   -1.990771    1.152383
H     -5.357869   -1.105968    1.500103
H     -6.688989   -0.478847    0.564785
H     -5.337787   -1.262302   -0.266054
H     -5.739012    1.110321   -1.564448
H     -6.756706    1.711672   -0.245779
H     -5.303099    2.597849   -0.710754
H     -4.420943    0.995841    2.575861
H     -5.931637    1.744345    2.079640
H     -4.382483    2.491724    1.656443
H     -1.103812    2.058587    0.448540
H      1.291114    2.346759   -0.006502
H      6.016574   -0.095362    1.944411
H      7.135680    1.012920    1.135326
H      5.748576    1.648198    2.033870
H      4.931608    2.929404   -0.054042
H      6.385744    2.340758   -0.880770
H      4.790163    2.086828   -1.597638
H      6.789316   -0.269645   -1.012466
H      5.589343   -1.346912   -0.274902
H      5.181914   -0.433805   -1.728579
H      2.908457   -2.026751   -1.142067
H      1.900349   -4.235428   -1.475525
H     -0.541022   -4.544613   -1.166585
H     -1.946730   -2.660378   -0.514383

