%chk=opt.chk
%mem=2gb
%nproc=32
#p pbepbe 3-611+G(d) opt scf(xqc,tight)

opt calculation

0 1
C      6.378107   -0.598255    0.646936
O      4.966653   -0.668224    0.440314
C      4.420345    0.484104   -0.022112
O      5.027857    1.515375   -0.263894
C      2.950396    0.333922   -0.206250
C      2.225896    1.444843   -0.667624
C      0.845461    1.358212   -0.857025
C      0.193768    0.161469   -0.570613
O     -1.179887    0.086460   -0.814586
C     -1.969384    0.001783    0.331910
O     -1.556089   -0.005714    1.484960
C     -3.448272   -0.080466   -0.064695
C     -3.681101   -1.334871   -0.917038
C     -3.840681    1.180274   -0.846249
C     -4.312502   -0.171001    1.203360
C      0.896891   -0.959536   -0.132038
C      2.277972   -0.869801    0.058076
H      6.714167   -1.569580    1.020213
H      6.893902   -0.392334   -0.296226
H      6.619010    0.162751    1.395846
H      2.737167    2.381880   -0.881476
H      0.289090    2.217385   -1.219680
H     -3.127838   -1.290261   -1.861867
H     -3.349230   -2.236424   -0.389289
H     -4.742157   -1.456893   -1.161644
H     -3.623420    2.085521   -0.267662
H     -4.909535    1.180846   -1.087324
H     -3.289688    1.258918   -1.790190
H     -4.056421   -1.056774    1.796297
H     -5.378137   -0.231501    0.955357
H     -4.168014    0.705268    1.846023
H      0.379251   -1.892362    0.071442
H      2.816423   -1.745016    0.413064

