%chk=opt.chk
%mem=2gb
%nproc=32
#p pbepbe 3-611+G(d) opt scf(xqc,tight)

opt calculation

0 1
C     -5.484440    1.626485   -1.387927
C     -4.814750    0.282308   -1.624311
N     -4.023687   -0.136540   -0.473268
C     -4.684178   -0.914474    0.571509
C     -4.554181   -2.408937    0.325643
C     -2.680560    0.220497   -0.412155
O     -2.125008    0.900558   -1.269451
O     -2.050623   -0.285249    0.723355
C     -0.685356    0.000670    0.848205
C     -0.282448    0.767509    1.935734
C      1.075751    1.024491    2.122673
C      2.033457    0.506015    1.233783
C      3.403446    0.758672    1.410671
C      4.354013    0.237271    0.521309
C      5.789004    0.545244    0.769836
O      6.181645    1.216133    1.711550
O      6.573293   -0.018272   -0.183016
C      7.967898    0.237491   -0.011371
C      3.930194   -0.546453   -0.557301
C      2.569623   -0.806300   -0.744493
C      1.611207   -0.288485    0.140082
C      0.243551   -0.543471   -0.038348
H     -6.159358    1.585459   -0.526941
H     -4.742057    2.407226   -1.192387
H     -6.067695    1.920495   -2.265873
H     -4.166651    0.354862   -2.504925
H     -5.564111   -0.487726   -1.838093
H     -5.740457   -0.626628    0.612710
H     -4.248219   -0.665984    1.544980
H     -5.005693   -2.690867   -0.631082
H     -3.503631   -2.716184    0.301120
H     -5.056470   -2.970071    1.119511
H     -1.015376    1.165906    2.630501
H      1.383772    1.633265    2.970256
H      3.737213    1.369060    2.248962
H      8.170150    1.311918   -0.063532
H      8.320125   -0.178677    0.937706
H      8.505291   -0.255663   -0.826081
H      4.644858   -0.962109   -1.263274
H      2.262230   -1.415472   -1.592400
H     -0.101771   -1.153972   -0.868168

