%chk=opt.chk
%mem=2gb
%nproc=32
#p pbepbe 3-611+G(d) opt scf(xqc,tight)

opt calculation

0 1
C     -4.396246    0.576677   -2.026242
C     -3.999956   -0.702792   -1.307390
N     -3.066850   -0.475309   -0.208393
C     -3.598339   -0.213533    1.127967
C     -3.730496    1.269341    1.438231
C     -1.708501   -0.373024   -0.502345
O     -1.252948   -0.508015   -1.633724
O     -0.943963   -0.099370    0.628629
C      0.436661    0.010719    0.389102
C      0.911039    1.219772   -0.112555
C      2.277096    1.400597   -0.323940
C      2.735245    2.622123   -0.846661
C      4.090406    2.843905   -1.072852
C      5.003789    1.844218   -0.778023
C      4.559509    0.624615   -0.257179
C      3.188283    0.357194   -0.011169
C      2.687860   -0.885583    0.529229
C      3.516747   -1.981520    0.883560
C      3.005846   -3.170430    1.412291
C      1.642116   -3.307802    1.607339
C      0.794406   -2.256290    1.271060
C      1.292749   -1.048426    0.732948
H     -3.517504    1.119587   -2.388575
H     -4.956776    1.245523   -1.367889
H     -5.032854    0.344462   -2.885805
H     -4.886776   -1.218555   -0.923643
H     -3.528937   -1.379324   -2.030267
H     -4.568760   -0.711103    1.230621
H     -2.930163   -0.673610    1.864826
H     -4.451690    1.752941    0.774320
H     -4.077203    1.409039    2.466980
H     -2.774376    1.790309    1.327954
H      0.203165    2.011051   -0.344481
H      2.031329    3.416500   -1.087373
H      4.428131    3.792911   -1.479786
H      6.064407    2.005270   -0.952314
H      5.319047   -0.122625   -0.046669
H      4.593779   -1.929301    0.752686
H      3.679226   -3.984194    1.668099
H      1.235423   -4.228430    2.016092
H     -0.273923   -2.387518    1.429610

