%chk=opt.chk
%mem=2gb
%nproc=1
#p b3lyp 6-31G* opt scf(xqc,tight)

opt calculation

0 1
C      2.725774    0.874454    0.075449
C      1.936893    0.072525    1.095905
O      1.120042   -0.903148    0.451644
C     -0.150218   -0.560588    0.082163
C     -0.717087    0.712494    0.143455
C     -2.035806    0.916858   -0.276964
C     -2.792272   -0.148055   -0.762740
C     -2.230628   -1.419952   -0.831849
C     -0.914580   -1.621777   -0.412192
H      3.404675    1.572338    0.573786
H      3.314046    0.207451   -0.563545
H      2.064866    1.443452   -0.585013
H      2.646130   -0.482503    1.720625
H      1.369876    0.710487    1.782694
H     -0.162370    1.571507    0.503445
H     -2.471310    1.911642   -0.227091
H     -3.816078    0.014128   -1.089069
H     -2.812872   -2.254893   -1.211862
H     -0.479082   -2.616421   -0.468842

