%chk=opt.chk
%mem=2gb
%nproc=1
#p b3lyp 6-31G* opt scf(xqc,tight)

opt calculation

0 1
C      3.905808   -1.541514   -0.152656
N      3.619541   -0.138304    0.088061
C      4.708242    0.798013   -0.113887
C      2.322923    0.355251    0.195103
O      2.060218    1.552532    0.255439
O      1.368877   -0.660470    0.216010
C      0.034648   -0.254513    0.350533
C     -0.415557    0.340982    1.524679
C     -1.764119    0.678245    1.642847
C     -2.666910    0.407025    0.599745
C     -4.026511    0.740612    0.706033
C     -4.913619    0.461905   -0.335140
C     -4.453903   -0.153845   -1.495636
C     -3.105386   -0.492174   -1.619097
C     -2.199137   -0.217978   -0.582088
C     -0.840916   -0.551756   -0.692323
H      4.841462   -1.809254    0.346919
H      4.008222   -1.695439   -1.230846
H      3.113587   -2.191435    0.226124
H      4.437717    1.809671    0.200048
H      4.963468    0.813509   -1.177662
H      5.575563    0.470626    0.466722
H      0.272020    0.551832    2.337950
H     -2.107586    1.156101    2.557451
H     -4.405294    1.222672    1.604481
H     -5.963248    0.726955   -0.238855
H     -5.144139   -0.370154   -2.306800
H     -2.765212   -0.970899   -2.534550
H     -0.460758   -1.038197   -1.585911

