%chk=opt.chk
%mem=2gb
%nproc=1
#p b3lyp 6-31G* opt scf(xqc,tight)

opt calculation

0 1
C      6.107422    0.585763    0.694330
O      5.580667   -0.530344   -0.011499
C      4.219112   -0.612542   -0.115319
C      3.756359   -1.725617   -0.816773
C      2.387808   -1.934369   -0.998558
C      1.454122   -1.027526   -0.478436
C      0.073480   -1.218461   -0.649757
C     -0.849636   -0.309379   -0.127845
O     -2.164068   -0.603961   -0.360199
Si    -3.616520    0.118350    0.026308
C     -3.746690    1.840451   -0.716999
C     -5.039235   -0.911689   -0.661789
C     -3.848779    0.241220    1.888037
C     -0.397838    0.804099    0.573426
C      0.974367    1.007756    0.752227
C      1.913852    0.102247    0.233151
C      3.297480    0.297157    0.407029
H      5.841985    1.526337    0.200445
H      5.781655    0.581347    1.739756
H      7.198461    0.502075    0.685714
H      4.467930   -2.438369   -1.226446
H      2.058141   -2.811753   -1.550105
H     -0.295295   -2.084012   -1.195571
H     -4.728497    2.275146   -0.506993
H     -2.984160    2.506000   -0.303223
H     -3.614650    1.799833   -1.802224
H     -6.000564   -0.450910   -0.416589
H     -5.020247   -1.920058   -0.238234
H     -4.961006   -0.992044   -1.749902
H     -4.831633    0.659540    2.124706
H     -3.087658    0.884786    2.337632
H     -3.777318   -0.748444    2.348748
H     -1.084534    1.530756    0.992612
H      1.304596    1.885318    1.303905
H      3.630889    1.171298    0.956731

