%chk=opt.chk
%mem=2gb
%nproc=1
#p b3lyp 6-31G* opt scf(xqc,tight)

opt calculation

0 1
C      8.054622   -0.842926    0.743197
O      7.205532   -0.047760   -0.074492
C      5.857441   -0.220052    0.081956
C      5.241203   -1.101839    0.966648
C      3.845061   -1.177328    1.024152
C      3.043379   -0.373593    0.198839
C      1.638945   -0.439373    0.245979
C      0.833566    0.366279   -0.577440
C     -0.634254    0.284344   -0.515026
C     -1.415330    1.423465   -0.288502
C     -2.812258    1.342459   -0.228436
C     -3.487665    0.119534   -0.393989
C     -5.023498    0.068054   -0.322669
C     -5.495762    0.563714    1.061255
C     -5.611143   -1.346812   -0.526034
C     -5.624945    0.973826   -1.418943
C     -2.699097   -1.018013   -0.621756
C     -1.300526   -0.936452   -0.680218
C      1.470612    1.249903   -1.459797
C      2.865345    1.327041   -1.520690
C      3.663804    0.521223   -0.696966
C      5.066444    0.584880   -0.743181
H      7.899725   -0.622913    1.804649
H      9.089951   -0.587015    0.498148
H      7.917286   -1.909258    0.535466
H      5.813073   -1.745338    1.626385
H      3.386174   -1.873190    1.723356
H      1.160824   -1.122753    0.946198
H     -0.940141    2.391635   -0.143132
H     -3.366920    2.260435   -0.045984
H     -6.586776    0.504438    1.151201
H     -5.061309   -0.040997    1.866157
H     -5.215733    1.606621    1.245834
H     -5.256642   -2.045127    0.241080
H     -6.706109   -1.332133   -0.466582
H     -5.347750   -1.755782   -1.508451
H     -6.720293    0.928176   -1.412462
H     -5.284135    0.667014   -2.414940
H     -5.347800    2.025348   -1.286127
H     -3.144953   -1.998583   -0.763215
H     -0.732412   -1.845146   -0.870992
H      0.880576    1.881527   -2.121087
H      3.323221    2.022159   -2.220974
H      5.558667    1.270309   -1.429934

