%chk=opt.chk
%mem=2gb
%nproc=1
#p b3lyp 6-31G* opt scf(xqc,tight)

opt calculation

0 1
C     -2.823026    1.905798   -1.420617
O     -1.470770    1.494346   -1.274849
C     -1.269811    0.629517   -0.219971
N     -2.299618    0.253713    0.530108
C     -1.975367   -0.577734    1.514215
O     -2.953583   -1.040700    2.368761
C     -4.247830   -0.531054    2.077865
N     -0.761248   -1.034944    1.778483
C      0.178452   -0.594981    0.950330
O      1.460524   -1.047355    1.243787
C      2.410145   -0.892709    0.264859
C      2.370937   -1.655775   -0.903982
C      3.382457   -1.513478   -1.854124
C      4.434861   -0.625225   -1.625905
C      4.481905    0.117679   -0.445058
C      3.472179   -0.021748    0.507230
N     -0.013040    0.246424   -0.061499
H     -2.874547    2.587903   -2.274837
H     -3.170045    2.453293   -0.537279
H     -3.477099    1.053715   -1.636403
H     -4.278507    0.559396    2.180007
H     -4.944866   -0.952244    2.808862
H     -4.583236   -0.841739    1.082174
H      1.559781   -2.356507   -1.077771
H      3.352307   -2.096528   -2.770748
H      5.222083   -0.515208   -2.367509
H      5.306092    0.803104   -0.266279
H      3.510872    0.549442    1.430149

