%chk=opt.chk
%mem=2gb
%nproc=1
#p b3lyp 6-31G* opt scf(xqc,tight)

opt calculation

0 1
C     -5.883710    1.638537    0.075755
O     -4.674887    2.220630   -0.392890
C     -3.572087    1.410792   -0.222197
N     -3.711851    0.217306    0.344445
C     -2.576759   -0.463182    0.457571
O     -2.582578   -1.713480    1.038257
C     -3.877204   -2.152158    1.426732
N     -1.382414   -0.051894    0.062291
C     -1.379427    1.151710   -0.502794
O     -0.179814    1.708937   -0.933831
C      0.862834    0.836546   -1.125653
C      0.895312    0.006914   -2.244400
C      1.991307   -0.829232   -2.439215
C      3.054122   -0.822948   -1.527993
C      3.034296    0.023196   -0.416054
N      4.068580    0.092888    0.541051
C      5.246230   -0.632200    0.564441
C      6.101502   -0.289200    1.759087
O      5.607525   -1.483798   -0.239493
C      1.930180    0.863088   -0.225247
N     -2.438302    1.936040   -0.660461
H     -6.691703    2.353673   -0.106877
H     -6.122392    0.720690   -0.472901
H     -5.843256    1.451782    1.154607
H     -4.305157   -1.497620    2.194074
H     -4.546017   -2.233626    0.562717
H     -3.774933   -3.150892    1.862268
H      0.078165    0.008356   -2.959557
H      2.027152   -1.489084   -3.302497
H      3.887038   -1.492434   -1.720152
H      3.921092    0.744017    1.301757
H      5.753399   -0.853909    2.627904
H      6.059911    0.782353    1.974831
H      7.142235   -0.551903    1.548358
H      1.881609    1.540106    0.622260

