%chk=opt.chk
%mem=2gb
%nproc=1
#p b3lyp 6-31G* opt scf(xqc,tight)

opt calculation

0 1
C      6.344958   -0.199133   -0.573642
O      5.568483   -1.190037    0.087230
C      4.212255   -1.011637    0.094227
C      3.497251   -2.015942    0.745535
C      2.104202   -1.959625    0.826905
C      1.397078   -0.891521    0.255772
C     -0.008855   -0.817141    0.327938
C     -0.727792    0.250358   -0.230391
N     -2.130263    0.358853   -0.182539
C     -2.895688   -0.872533    0.063640
C     -4.372141   -0.632335   -0.250969
C     -4.920016    0.547927    0.545867
C     -4.064066    1.790753    0.320489
C     -2.588351    1.515593    0.611402
C      0.010478    1.245834   -0.886767
C      1.405509    1.191702   -0.972776
C      2.115035    0.127922   -0.402955
C      3.519530    0.056701   -0.477888
H      7.396768   -0.490098   -0.493092
H      6.232091    0.777389   -0.091236
H      6.094957   -0.146524   -1.638453
H      4.028880   -2.851701    1.193731
H      1.576330   -2.759449    1.340737
H     -0.535315   -1.610045    0.850719
H     -2.791761   -1.191297    1.108715
H     -2.538503   -1.684382   -0.581941
H     -4.951529   -1.534359   -0.024966
H     -4.490690   -0.431314   -1.323171
H     -4.931380    0.297743    1.613695
H     -5.955491    0.749414    0.250152
H     -4.174456    2.120177   -0.720422
H     -4.421460    2.607837    0.956998
H     -2.025619    2.426268    0.375414
H     -2.448048    1.312377    1.681237
H     -0.509656    2.072018   -1.366076
H      1.927422    1.987964   -1.497706
H      4.049851    0.852245   -0.991003

