%chk=opt.chk
%mem=2gb
%nproc=1
#p b3lyp 6-31G* opt scf(xqc,tight)

opt calculation

0 1
C      6.641475   -1.053886   -2.050214
C      6.035645   -0.029896   -1.076759
C      6.851541   -0.033244    0.222581
C      6.071171    1.358308   -1.729598
C      4.583897   -0.416770   -0.768853
O      4.018634   -1.406069   -1.218037
O      4.023181    0.521367    0.096095
C      2.693247    0.257994    0.428133
C      1.676062    0.652148   -0.430785
C      0.351040    0.427949   -0.056341
C      0.025013   -0.176319    1.179928
C     -1.310307   -0.417646    1.587822
O     -2.304007   -0.037123    0.719287
Si    -3.966664   -0.138122    0.704033
C     -4.583562   -1.908748    0.747032
C     -4.763083    0.868164    2.071951
C     -4.614591    0.683645   -1.105861
C     -6.151631    0.618353   -1.176552
C     -3.990448   -0.127588   -2.259582
C     -4.136971    2.148516   -1.174070
C     -1.576469   -1.014772    2.823345
C     -0.528381   -1.379372    3.665479
C      0.790942   -1.150334    3.279800
C      1.084029   -0.552976    2.045303
C      2.414701   -0.324588    1.661864
H      6.628433   -2.063682   -1.623738
H      6.078927   -1.088931   -2.990409
H      7.681357   -0.806670   -2.291676
H      6.787761   -1.005348    0.724946
H      7.908722    0.178417    0.027444
H      6.488934    0.721436    0.929556
H      5.705443    2.135132   -1.048789
H      5.439786    1.388299   -2.625031
H      7.090311    1.631991   -2.024443
H      1.901872    1.121468   -1.382728
H     -0.440661    0.729223   -0.739564
H     -5.673146   -1.944808    0.659555
H     -4.305653   -2.393547    1.687312
H     -4.153347   -2.490161   -0.073440
H     -4.490569    0.471495    3.054164
H     -4.438102    1.911512    2.026370
H     -5.853469    0.843874    1.990214
H     -6.513569    1.043338   -2.119778
H     -6.515170   -0.413442   -1.119637
H     -6.617803    1.182222   -0.361297
H     -4.287766    0.286912   -3.229594
H     -4.312129   -1.174639   -2.236156
H     -2.895423   -0.113993   -2.214704
H     -3.045733    2.219698   -1.101159
H     -4.565155    2.750212   -0.364819
H     -4.436775    2.609960   -2.121849
H     -2.590375   -1.207422    3.155580
H     -0.739451   -1.844499    4.625020
H      1.592820   -1.445515    3.953334
H      3.235468   -0.601525    2.317429

