%chk=opt.chk
%mem=2gb
%nproc=1
#p b3lyp 6-31G* opt scf(xqc,tight)

opt calculation

0 1
C     -4.830259    0.479494   -0.089348
O     -3.583483    1.150781   -0.217868
C     -2.454225    0.389170   -0.090657
C     -2.413672   -0.981804    0.152740
C     -1.183390   -1.639721    0.260807
C      0.024181   -0.937336    0.127245
C      1.266491   -1.581491    0.232792
C      2.461340   -0.865935    0.096992
C      2.431148    0.505282   -0.146536
O      3.519750    1.319603   -0.299135
C      4.799618    0.708369   -0.199508
C      1.197242    1.154023   -0.252970
C     -0.011624    0.450507   -0.119196
C     -1.255285    1.095735   -0.224916
H     -5.624194    1.221925   -0.215471
H     -4.941082    0.039795    0.907377
H     -4.954184   -0.276467   -0.871806
H     -3.317448   -1.571029    0.263988
H     -1.176568   -2.710756    0.451137
H      1.314905   -2.651537    0.422650
H      3.394392   -1.411501    0.187239
H      4.953986    0.275073    0.794222
H      4.941365   -0.041358   -0.984933
H      5.554297    1.487587   -0.343453
H      1.185152    2.225310   -0.443313
H     -1.298453    2.166284   -0.414896

