%chk=opt.chk
%mem=2gb
%nproc=1
#p b3lyp 6-31G* opt scf(xqc,tight)

opt calculation

0 1
C     -5.913068   -0.296246    0.104018
O     -4.809734   -1.164662   -0.119922
C     -3.560458   -0.615716   -0.023937
C     -3.270204    0.715657    0.263899
C     -1.940046    1.145521    0.331550
C     -0.879050    0.252881    0.111607
C      0.464318    0.672065    0.175808
C      1.535183   -0.215260   -0.044977
C      2.945807    0.223304    0.014183
C      3.361573    1.497722   -0.375173
C      4.711741    1.834380   -0.288679
C      5.618395    0.894888    0.180918
C      5.135020   -0.349480    0.540541
N      3.832899   -0.702307    0.463989
C      1.213758   -1.554817   -0.319456
C     -0.113727   -1.990026   -0.388484
C     -1.170200   -1.095361   -0.177365
C     -2.510318   -1.512028   -0.242219
H     -5.896498    0.109284    1.121058
H     -6.829142   -0.884874   -0.004457
H     -5.942225    0.505205   -0.641560
H     -4.051214    1.446921    0.441796
H     -1.739320    2.190178    0.559326
H      0.672837    1.711036    0.423164
H      2.655317    2.225026   -0.761002
H      5.050040    2.821395   -0.590660
H      6.674838    1.123840    0.260855
H      5.800964   -1.123218    0.911577
H      2.011657   -2.277714   -0.485604
H     -0.311334   -3.037187   -0.606288
H     -2.747810   -2.550407   -0.464028

