%chk=opt.chk
%mem=2gb
%nproc=1
#p b3lyp 6-31G* opt scf(xqc,tight)

opt calculation

0 1
C     -3.158480    1.581351   -2.089496
O     -1.849625    1.351471   -1.586451
C     -1.789752    0.339905   -0.651434
N     -2.898273   -0.305105   -0.305745
C     -2.709048   -1.252393    0.606303
O     -3.781907   -1.992577    1.056502
C     -5.017335   -1.619910    0.461442
N     -1.551567   -1.580904    1.158836
C     -0.518599   -0.870152    0.722467
O      0.694489   -1.193925    1.321303
C      1.827220   -0.691352    0.731230
C      2.300298   -1.218293   -0.470641
C      3.486935   -0.729794   -1.014482
C      4.200972    0.271339   -0.351287
C      3.733540    0.797192    0.860937
C      4.524016    1.841503    1.591447
C      2.548391    0.292254    1.409907
N     -0.576875    0.109349   -0.175082
H     -3.841838    1.896433   -1.292978
H     -3.544592    0.698949   -2.611935
H     -3.098315    2.397037   -2.816630
H     -5.004239   -1.788554   -0.620825
H     -5.273626   -0.580360    0.693684
H     -5.798974   -2.256321    0.887481
H      1.752799   -2.004959   -0.980875
H      3.859991   -1.131539   -1.952849
H      5.128797    0.637455   -0.785649
H      3.865723    2.489287    2.179768
H      5.243531    1.364172    2.263731
H      5.066669    2.482786    0.888928
H      2.179676    0.665654    2.361616

