%chk=opt.chk
%mem=2gb
%nproc=1
#p b3lyp 6-31G* opt scf(xqc,tight)

opt calculation

0 1
C      6.477104   -1.376849    1.377754
O      5.634422   -0.231572    1.327466
C      4.405125   -0.393430    0.748963
C      3.902713   -1.575007    0.207914
C      2.622563   -1.599923   -0.357334
C      1.824214   -0.445742   -0.389392
C      0.535794   -0.457041   -0.953272
C     -0.259318    0.700530   -0.980268
C     -1.651954    0.651701   -1.584418
C     -1.802121    1.610707   -2.768136
C     -2.722690    0.924110   -0.536043
O     -3.194127    2.026111   -0.282166
O     -3.063139   -0.238521    0.093809
C     -4.014554   -0.123645    1.167461
C     -5.431536   -0.111311    0.602846
C     -3.805888   -1.329764    2.077049
C      0.254229    1.881023   -0.425943
C      1.533088    1.906288    0.134884
C      2.329185    0.751848    0.159992
C      3.616592    0.760777    0.722140
H      7.416019   -1.078683    1.854225
H      6.714561   -1.738390    0.371676
H      6.031296   -2.169100    1.988093
H      4.477202   -2.495160    0.207563
H      2.252222   -2.534647   -0.774021
H      0.147249   -1.384031   -1.373837
H     -1.843793   -0.354140   -1.983206
H     -1.062704    1.390884   -3.545894
H     -1.674572    2.658198   -2.472671
H     -2.800139    1.519137   -3.212479
H     -3.824470    0.787166    1.750164
H     -5.616477   -0.998378   -0.014917
H     -5.588813    0.758760   -0.044494
H     -6.175674   -0.080062    1.404328
H     -3.949105   -2.266355    1.525889
H     -2.779657   -1.343891    2.461269
H     -4.495598   -1.312873    2.926500
H     -0.338751    2.794706   -0.417595
H      1.902867    2.838668    0.557257
H      4.018633    1.677899    1.148489

