%chk=opt.chk
%mem=2gb
%nproc=1
#p b3lyp 6-31G* opt scf(xqc,tight)

opt calculation

0 1
C      4.852660   -0.135735    0.176820
O      3.892999   -0.934324   -0.503659
C      2.578649   -0.597042   -0.335973
C      1.674587   -1.408761   -1.021818
C      0.298098   -1.175515   -0.937069
C     -0.207705   -0.120963   -0.163148
C     -1.655496    0.128509   -0.070594
C     -2.192658    1.393623   -0.362032
C     -3.567196    1.631077   -0.274535
C     -4.428813    0.606096    0.107535
C     -3.917534   -0.655361    0.401199
C     -2.542874   -0.891351    0.312027
C      0.712982    0.688611    0.521166
C      2.092293    0.454642    0.437819
H      4.719227   -0.196956    1.261969
H      4.818391    0.902864   -0.168492
H      5.844987   -0.532064   -0.059107
H      2.043320   -2.230319   -1.631034
H     -0.378471   -1.820722   -1.493589
H     -1.538618    2.205295   -0.674312
H     -3.962933    2.615941   -0.508200
H     -5.497715    0.789999    0.175871
H     -4.586461   -1.457291    0.702256
H     -2.163217   -1.881499    0.556479
H      0.358139    1.509449    1.141780
H      2.753361    1.111794    0.992325

