%chk=opt.chk
%mem=2gb
%nproc=1
#p b3lyp 6-31G* opt scf(xqc,tight)

opt calculation

0 1
C      5.625617    0.075489    0.826513
O      4.352206    0.703678    0.869980
C      3.306152    0.043919    0.279014
C      3.388073   -1.223097   -0.318892
C      2.268551   -1.822951   -0.896895
C      1.027627   -1.184561   -0.900787
C      0.941184    0.081333   -0.304281
C      2.051065    0.699799    0.281967
C      1.606035    1.957253    0.785562
C      0.265733    2.079322    0.504287
N     -0.128656    0.941708   -0.151391
C     -1.487691    0.698274   -0.617459
C     -2.301675   -0.107099    0.405069
N     -3.654133   -0.468746   -0.070073
C     -4.527342    0.702851   -0.176440
C     -4.255962   -1.447256    0.841792
H      6.343408    0.741061    1.315711
H      5.618640   -0.869120    1.380194
H      5.959939   -0.071833   -0.205782
H      4.322412   -1.773952   -0.348202
H      2.363036   -2.806119   -1.352770
H      0.164288   -1.662800   -1.352522
H      2.217650    2.688066    1.298149
H     -0.430654    2.879449    0.717828
H     -1.422461    0.174849   -1.577926
H     -1.938079    1.678440   -0.808887
H     -1.747347   -1.031083    0.617662
H     -2.358828    0.440684    1.355619
H     -5.530539    0.405512   -0.503157
H     -4.159668    1.403197   -0.932639
H     -4.621693    1.236262    0.776309
H     -5.243824   -1.754290    0.480253
H     -4.366746   -1.051677    1.858008
H     -3.646319   -2.356562    0.888616

