%chk=opt.chk
%mem=2gb
%nproc=1
#p b3lyp 6-31G* opt scf(xqc,tight)

opt calculation

0 1
C     -3.710551    1.134712   -0.374448
O     -2.788849    0.052769   -0.385556
C     -1.453629    0.347974   -0.280989
C     -0.948386    1.642958   -0.164771
C      0.425786    1.860133   -0.062766
C      1.327489    0.790944   -0.074325
C      2.707764    1.033847    0.029737
C      3.623900   -0.015681    0.020376
C      3.169785   -1.321911   -0.093297
C      1.799735   -1.576536   -0.197464
C      0.842667   -0.534231   -0.191192
C     -0.565683   -0.750363   -0.295317
C     -1.103161   -2.158148   -0.420904
H     -3.549083    1.800185   -1.228819
H     -4.717462    0.716088   -0.466004
H     -3.664316    1.683531    0.571880
H     -1.595964    2.512876   -0.149858
H      0.786489    2.882730    0.026557
H      3.081848    2.051533    0.119599
H      4.687947    0.188442    0.101690
H      3.876927   -2.147098   -0.101500
H      1.486846   -2.614221   -0.284705
H     -2.193451   -2.200736   -0.493450
H     -0.706279   -2.632170   -1.324840
H     -0.820370   -2.747624    0.457652

