%chk=opt.chk
%mem=2gb
%nproc=1
#p b3lyp 6-31G* opt scf(xqc,tight)

opt calculation

0 1
C      5.785411    0.551048   -0.046090
O      5.096124   -0.660093   -0.328056
C      3.729062   -0.613414   -0.314309
C      3.103534   -1.827180   -0.597368
C      1.710595   -1.922712   -0.617266
C      0.915100   -0.799083   -0.353169
C     -0.489365   -0.874931   -0.369079
C     -1.292672    0.246901   -0.102970
C     -2.761219    0.149998   -0.124812
C     -3.436931   -0.345692   -1.252403
C     -4.831275   -0.437563   -1.274370
C     -5.573923   -0.035751   -0.167073
C     -4.923965    0.458040    0.961129
C     -3.529599    0.550389    0.981038
C     -0.653299    1.460877    0.183129
C      0.741915    1.554302    0.201796
C      1.540741    0.432796   -0.064328
C      2.946522    0.511930   -0.048733
H      6.858789    0.344381   -0.097015
H      5.562552    0.905849    0.965595
H      5.558397    1.317906   -0.794055
H      3.705980   -2.708256   -0.804577
H      1.253368   -2.883712   -0.841025
H     -0.968700   -1.829544   -0.581462
H     -2.876186   -0.654620   -2.132430
H     -5.335201   -0.820666   -2.157829
H     -6.658204   -0.107536   -0.183306
H     -5.500115    0.769451    1.828466
H     -3.040899    0.928260    1.876896
H     -1.242289    2.353952    0.383118
H      1.198321    2.516179    0.424452
H      3.407430    1.468495    0.175018

