%chk=opt.chk
%mem=2gb
%nproc=1
#p b3lyp 6-31G* opt scf(xqc,tight)

opt calculation

0 1
C      3.918054    0.567641   -0.060612
O      3.217059   -0.669121   -0.032480
C      1.851900   -0.607083    0.029224
C      1.215052   -1.847584    0.054454
C     -0.177346   -1.932999    0.116974
C     -0.961459   -0.771615    0.155566
C     -2.363570   -0.838048    0.218574
C     -3.115582    0.332872    0.255743
O     -4.477677    0.302010    0.317043
C     -2.499655    1.575780    0.231463
C     -1.107927    1.655536    0.168963
C     -0.322921    0.490882    0.130322
C      1.081851    0.556921    0.067192
H      4.988162    0.344204   -0.109466
H      3.658405    1.148445   -0.951849
H      3.739775    1.143392    0.853599
H      1.809045   -2.757903    0.025131
H     -0.641291   -2.916283    0.135131
H     -2.856303   -1.805526    0.238073
H     -4.767750   -0.624733    0.327511
H     -3.099308    2.481000    0.261021
H     -0.640843    2.637516    0.150660
H      1.552331    1.534695    0.048725

