%chk=opt.chk
%mem=2gb
%nproc=1
#p b3lyp 6-31G* opt scf(xqc,tight)

opt calculation

0 1
C     -4.640861   -0.807580   -0.066614
C     -3.231195   -1.171767   -0.504633
Si    -1.811739   -0.131440    0.256834
C     -2.099256    1.699863   -0.205118
C     -2.004327    2.009604   -1.692944
C     -1.858581   -0.329682    2.155164
C     -2.788958    0.611625    2.906676
O     -0.359363   -0.682793   -0.357933
C      0.946782   -0.299671   -0.229340
C      1.392818    0.738132    0.583538
C      2.755700    1.046587    0.637868
C      3.689626    0.321579   -0.118610
C      5.061152    0.620296   -0.074167
C      5.975389   -0.112043   -0.833295
C      5.530720   -1.151150   -1.645474
C      4.170748   -1.460386   -1.700488
C      3.238148   -0.733127   -0.942962
C      1.866293   -1.030111   -0.986027
H     -4.873605    0.240246   -0.282053
H     -4.781572   -0.975654    1.005575
H     -5.369938   -1.429171   -0.596830
H     -3.038266   -2.222581   -0.260623
H     -3.158123   -1.076854   -1.593924
H     -1.366553    2.309442    0.334282
H     -3.089279    1.994454    0.159827
H     -2.752169    1.451949   -2.266716
H     -2.175930    3.076966   -1.866247
H     -1.015615    1.758915   -2.092040
H     -2.135043   -1.366856    2.376026
H     -0.841083   -0.187286    2.535170
H     -3.826717    0.510636    2.575700
H     -2.492140    1.657121    2.771170
H     -2.756228    0.393389    3.979199
H      0.708814    1.323117    1.187911
H      3.084006    1.861283    1.279518
H      5.427804    1.428497    0.554515
H      7.034106    0.129623   -0.789620
H      6.241334   -1.722300   -2.237087
H      3.841544   -2.275757   -2.340768
H      1.501557   -1.838544   -1.615459

